#=======================================================
# FHI-aims file: argon_12600_30k.in
# Created using the Atomic Simulation Environment (ASE)
# Tue Jun 15 19:25:00 2021
#=======================================================
lattice_vector 73.6400000000000006 0.0000000000000000 0.0000000000000000 
lattice_vector 0.0000000000000000 78.8999999999999915 0.0000000000000000 
lattice_vector 0.0000000000000000 0.0000000000000000 78.8999999999999915 
atom 0.0000000000000000 0.0000000000000000 0.0000000000000000 Ar
    velocity -0.1310159604047853 0.9101153547017105 0.0163275053674209
atom 5.2599999999999998 0.0000000000000000 0.0000000000000000 Ar
    velocity 0.5442266689340693 0.0482797378017985 -0.2163251946873415
atom 10.5199999999999996 0.0000000000000000 0.0000000000000000 Ar
    velocity -0.3072738205666674 -0.5597961894663904 0.7695328312448942
atom 15.7799999999999994 0.0000000000000000 0.0000000000000000 Ar
    velocity -1.7411923596379963 -0.3599705267019168 -0.5038315439785003
atom 21.0399999999999991 0.0000000000000000 0.0000000000000000 Ar
    velocity -0.9405472373733464 -0.0632090889074661 -0.5484094718140076
atom 26.2999999999999972 0.0000000000000000 0.0000000000000000 Ar
    velocity -0.9858968570015963 -2.3518024424807820 0.5758206616652397
atom 31.5599999999999987 0.0000000000000000 0.0000000000000000 Ar
    velocity 0.2247052135584191 -0.4888611490028791 -0.1741935328758136
atom 36.8200000000000003 0.0000000000000000 0.0000000000000000 Ar
    velocity -0.2286570593945541 -0.5501787644316808 -1.1728283461131204
atom 42.0799999999999983 0.0000000000000000 0.0000000000000000 Ar
    velocity -2.7887878162598927 -0.2930824699174572 0.5486181792122439
atom 47.3399999999999963 0.0000000000000000 0.0000000000000000 Ar
    velocity -0.2013419127772600 0.8809212602734099 0.9110641067552659
atom 52.5999999999999943 0.0000000000000000 0.0000000000000000 Ar
    velocity 0.8362934949874683 0.2400417452237830 -0.0647422767015044
atom 57.8599999999999994 0.0000000000000000 0.0000000000000000 Ar
    velocity -1.1245867651265924 0.5706751845071154 -0.7726145369730002
atom 63.1199999999999974 0.0000000000000000 0.0000000000000000 Ar
    velocity 0.9540436966072350 1.5498284124158894 0.7702159605108548
atom 68.3800000000000097 0.0000000000000000 0.0000000000000000 Ar
    velocity -0.2433812120648994 0.3009967524343118 0.6361004536496087
atom 0.0000000000000000 5.2599999999999998 0.0000000000000000 Ar
    velocity -0.7129198502799637 -0.7365306377170218 -0.0245310908658656
atom 5.2599999999999998 5.2599999999999998 0.0000000000000000 Ar
    velocity 0.0900785287303058 -0.1527850345177176 -0.6865609766651697
atom 10.5199999999999996 5.2599999999999998 0.0000000000000000 Ar
    velocity -0.6558420971101215 0.9396768109534588 -1.1822242178457862
atom 15.7799999999999994 5.2599999999999998 0.0000000000000000 Ar
    velocity 1.1027653033322999 0.7718507192099658 0.3618175432374324
atom 21.0399999999999991 5.2599999999999998 0.0000000000000000 Ar
    velocity -0.0174468248506930 0.8127734970481433 -1.3250691668963139
atom 26.2999999999999972 5.2599999999999998 0.0000000000000000 Ar
    velocity -0.4336733917345775 -0.2866775493925800 -0.3260363407958407
atom 31.5599999999999987 5.2599999999999998 0.0000000000000000 Ar
    velocity 0.3134398054311450 0.8436539855441358 0.1877132424290235
atom 36.8200000000000003 5.2599999999999998 0.0000000000000000 Ar
    velocity 0.2037194277191105 -0.2879562919364708 -1.4067137549097080
atom 42.0799999999999983 5.2599999999999998 0.0000000000000000 Ar
    velocity -0.2437859421237955 0.3562276560117839 -0.0269419205607271
atom 47.3399999999999963 5.2599999999999998 0.0000000000000000 Ar
    velocity -0.2201666056885789 1.0318346002557577 -0.2760781947334391
atom 52.5999999999999943 5.2599999999999998 0.0000000000000000 Ar
    velocity -1.7669693835342186 0.5613948671434272 -1.2406770799827573
atom 57.8599999999999994 5.2599999999999998 0.0000000000000000 Ar
    velocity -0.9510278724538439 0.3237614403663882 -0.2203727062565940
atom 63.1199999999999974 5.2599999999999998 0.0000000000000000 Ar
    velocity 0.1655814832986813 0.1050214486364682 -0.0125419369572022
atom 68.3800000000000097 5.2599999999999998 0.0000000000000000 Ar
    velocity -0.9789466771744013 1.1906468035299098 -0.7585839899839711
atom 0.0000000000000000 10.5199999999999996 0.0000000000000000 Ar
    velocity 0.2731001760347899 0.6435734750109254 0.2662742503316826
atom 5.2599999999999998 10.5199999999999996 0.0000000000000000 Ar
    velocity -0.2352564334967306 -1.1242946521659674 0.3160821282925581
atom 10.5199999999999996 10.5199999999999996 0.0000000000000000 Ar
    velocity 0.2839359041979290 1.0115840606050046 1.0238648328150679
atom 15.7799999999999994 10.5199999999999996 0.0000000000000000 Ar
    velocity -0.7590257678637139 0.4590235717985380 -1.7284476499878225
atom 21.0399999999999991 10.5199999999999996 0.0000000000000000 Ar
    velocity -1.2593813021712634 1.4468859846737490 1.3372081062685168
atom 26.2999999999999972 10.5199999999999996 0.0000000000000000 Ar
    velocity -0.0904779018181884 0.7845063636978351 -0.1875555298359671
atom 31.5599999999999987 10.5199999999999996 0.0000000000000000 Ar
    velocity 0.6671755985417875 1.3526523753274506 -0.7211018064797606
atom 36.8200000000000003 10.5199999999999996 0.0000000000000000 Ar
    velocity 0.2216718216809789 0.1495234760337997 -0.4382727629192037
atom 42.0799999999999983 10.5199999999999996 0.0000000000000000 Ar
    velocity -0.1005564201696413 -0.3844441531744957 0.9848910677842141
atom 47.3399999999999963 10.5199999999999996 0.0000000000000000 Ar
    velocity -0.0622753858646083 0.3797319955366414 0.4254993860636111
atom 52.5999999999999943 10.5199999999999996 0.0000000000000000 Ar
    velocity 1.1504223057530591 0.1410696580786458 -0.6151884634387301
atom 57.8599999999999994 10.5199999999999996 0.0000000000000000 Ar
    velocity 1.3038123229230913 0.2209023755481080 0.5967870442028961
atom 63.1199999999999974 10.5199999999999996 0.0000000000000000 Ar
    velocity -0.5186541956373814 -0.4408817650118290 0.3813974323294597
atom 68.3800000000000097 10.5199999999999996 0.0000000000000000 Ar
    velocity -0.2720306421999457 -0.6359630698686454 0.0920456619083983
atom 0.0000000000000000 15.7799999999999994 0.0000000000000000 Ar
    velocity 0.3745637073855680 -0.1158107605531797 -0.0599088231568419
atom 5.2599999999999998 15.7799999999999994 0.0000000000000000 Ar
    velocity 0.2788749191789748 -0.1198628527523574 0.6663726250711023
atom 10.5199999999999996 15.7799999999999994 0.0000000000000000 Ar
    velocity 0.8561948850906774 -0.3671596853390144 -1.3911973098999433
atom 15.7799999999999994 15.7799999999999994 0.0000000000000000 Ar
    velocity 0.0135180183978017 -0.2136850096468947 0.0445802070137764
atom 21.0399999999999991 15.7799999999999994 0.0000000000000000 Ar
    velocity 0.0758018884031553 0.0351296509453079 -0.2885568996413064
atom 26.2999999999999972 15.7799999999999994 0.0000000000000000 Ar
    velocity -0.0672058909371483 1.2584920248100331 -1.1988271985275032
atom 31.5599999999999987 15.7799999999999994 0.0000000000000000 Ar
    velocity 0.1037692533941009 0.8376421834560260 -1.4013675270885828
atom 36.8200000000000003 15.7799999999999994 0.0000000000000000 Ar
    velocity 1.2855539943461520 -0.6470645897043308 -0.1186786673057651
atom 42.0799999999999983 15.7799999999999994 0.0000000000000000 Ar
    velocity -0.7943354761653062 0.8795200740194983 -0.1690909307507103
atom 47.3399999999999963 15.7799999999999994 0.0000000000000000 Ar
    velocity 0.8930195035714197 1.0769604366765340 -0.1929000979793616
atom 52.5999999999999943 15.7799999999999994 0.0000000000000000 Ar
    velocity 0.1082164954807461 0.5302119413903905 1.5876143757524837
atom 57.8599999999999994 15.7799999999999994 0.0000000000000000 Ar
    velocity 0.6087786780613752 0.1136575505928419 -0.7585080843381908
atom 63.1199999999999974 15.7799999999999994 0.0000000000000000 Ar
    velocity 0.2591594283430437 1.1391071938197577 -0.5171682616326578
atom 68.3800000000000097 15.7799999999999994 0.0000000000000000 Ar
    velocity 1.1130886820413670 -1.2834040854920605 -0.8239087860398182
atom 0.0000000000000000 21.0399999999999991 0.0000000000000000 Ar
    velocity -1.4584759034307202 0.3425325822159429 -0.7869745183780318
atom 5.2599999999999998 21.0399999999999991 0.0000000000000000 Ar
    velocity 0.3789213294129947 -0.6913967748142001 0.5759254712096310
atom 10.5199999999999996 21.0399999999999991 0.0000000000000000 Ar
    velocity 0.6378852420505752 -0.1501883177325541 0.0452078803658553
atom 15.7799999999999994 21.0399999999999991 0.0000000000000000 Ar
    velocity -0.3090842147103368 0.2642064240459599 -1.6122243749387786
atom 21.0399999999999991 21.0399999999999991 0.0000000000000000 Ar
    velocity -1.0849824217016857 1.5902509215970726 0.0114543837565705
atom 26.2999999999999972 21.0399999999999991 0.0000000000000000 Ar
    velocity 0.5815127558907278 -0.0152817669896052 1.0143126775034201
atom 31.5599999999999987 21.0399999999999991 0.0000000000000000 Ar
    velocity -0.3175445481904260 0.9745660227473493 -0.1187997677624060
atom 36.8200000000000003 21.0399999999999991 0.0000000000000000 Ar
    velocity 0.9532499977349937 0.3980473522590569 -0.1424790897212750
atom 42.0799999999999983 21.0399999999999991 0.0000000000000000 Ar
    velocity -1.0779546643240070 -0.1252322133984289 0.7315522200723619
atom 47.3399999999999963 21.0399999999999991 0.0000000000000000 Ar
    velocity 0.1266017003472668 0.4701669141056011 0.4231742308808532
atom 52.5999999999999943 21.0399999999999991 0.0000000000000000 Ar
    velocity 0.1363230880274671 -0.4470268795029896 0.6123211783620222
atom 57.8599999999999994 21.0399999999999991 0.0000000000000000 Ar
    velocity -0.4607981182203859 -0.1485349019104907 0.3172508090584339
atom 63.1199999999999974 21.0399999999999991 0.0000000000000000 Ar
    velocity 0.6415515388444356 -0.0014785517884587 0.5238513269851199
atom 68.3800000000000097 21.0399999999999991 0.0000000000000000 Ar
    velocity -0.5695085633944904 0.0861880700179107 -0.9984425431797832
atom 0.0000000000000000 26.2999999999999972 0.0000000000000000 Ar
    velocity 0.1926627364063776 0.6824801298863311 -0.6971032385307270
atom 5.2599999999999998 26.2999999999999972 0.0000000000000000 Ar
    velocity -0.0570511426376982 1.7528212556162728 0.7294705111976491
atom 10.5199999999999996 26.2999999999999972 0.0000000000000000 Ar
    velocity -0.5199047064032443 -0.4648766198075501 -0.3117095868364844
atom 15.7799999999999994 26.2999999999999972 0.0000000000000000 Ar
    velocity 1.3494545112924468 0.2917023955660482 -0.4212306499983113
atom 21.0399999999999991 26.2999999999999972 0.0000000000000000 Ar
    velocity 2.2614099877860299 -0.4367615713494740 -1.7900547153819293
atom 26.2999999999999972 26.2999999999999972 0.0000000000000000 Ar
    velocity -0.4220644982949016 1.2113486649641816 -0.5860302715636895
atom 31.5599999999999987 26.2999999999999972 0.0000000000000000 Ar
    velocity 0.0266435001391576 0.6382734040731742 0.0382462716726231
atom 36.8200000000000003 26.2999999999999972 0.0000000000000000 Ar
    velocity -0.5381989304269214 -1.0774119630325116 -1.1377313300664276
atom 42.0799999999999983 26.2999999999999972 0.0000000000000000 Ar
    velocity -0.6009749649531682 -0.7783539285275515 -0.9167124513548207
atom 47.3399999999999963 26.2999999999999972 0.0000000000000000 Ar
    velocity -2.0149951096596808 -1.9007373828033953 -0.5678686267402604
atom 52.5999999999999943 26.2999999999999972 0.0000000000000000 Ar
    velocity -1.0596763584889766 0.7581281495871930 0.2247971778488518
atom 57.8599999999999994 26.2999999999999972 0.0000000000000000 Ar
    velocity 0.3016073689521959 0.7744292353675665 -0.6006599891078537
atom 63.1199999999999974 26.2999999999999972 0.0000000000000000 Ar
    velocity -0.7363556221478622 0.8797398729501543 -1.1052766103046914
atom 68.3800000000000097 26.2999999999999972 0.0000000000000000 Ar
    velocity -0.0774453818422586 0.6037499470054177 -1.3737395706982256
atom 0.0000000000000000 31.5599999999999987 0.0000000000000000 Ar
    velocity -0.1587504265497148 -1.1436142480675957 1.1540115662089721
atom 5.2599999999999998 31.5599999999999987 0.0000000000000000 Ar
    velocity 0.7032438298115445 1.2674558437840326 -0.0711553268392845
atom 10.5199999999999996 31.5599999999999987 0.0000000000000000 Ar
    velocity -1.6645852512075026 -0.3113252443913713 -1.1020239222839212
atom 15.7799999999999994 31.5599999999999987 0.0000000000000000 Ar
    velocity -0.9133673167846341 1.6460225020228967 -0.4391361980617293
atom 21.0399999999999991 31.5599999999999987 0.0000000000000000 Ar
    velocity -0.8540336522663957 0.1082759248890669 0.6482186429930621
atom 26.2999999999999972 31.5599999999999987 0.0000000000000000 Ar
    velocity 0.1706659774840232 -0.7691872050663822 -0.5030278055092580
atom 31.5599999999999987 31.5599999999999987 0.0000000000000000 Ar
    velocity 1.1946551600383803 -0.2170994772307810 -0.3805813798429237
atom 36.8200000000000003 31.5599999999999987 0.0000000000000000 Ar
    velocity -0.1633469161053945 0.4557486418201120 -0.2321858688390819
atom 42.0799999999999983 31.5599999999999987 0.0000000000000000 Ar
    velocity 0.7068091187995885 0.6706047630559328 -0.6917382155324439
atom 47.3399999999999963 31.5599999999999987 0.0000000000000000 Ar
    velocity 1.0107595349660217 -0.0878006885808485 -0.1333792538285853
atom 52.5999999999999943 31.5599999999999987 0.0000000000000000 Ar
    velocity -0.8279839789034692 -0.5513255913367983 -0.2232502623316486
atom 57.8599999999999994 31.5599999999999987 0.0000000000000000 Ar
    velocity 0.3170265961268884 0.1560524176822934 0.2780186334578165
atom 63.1199999999999974 31.5599999999999987 0.0000000000000000 Ar
    velocity 0.6807590871810854 -1.5246731414708570 -1.0643401616789281
atom 68.3800000000000097 31.5599999999999987 0.0000000000000000 Ar
    velocity 0.8870610085448474 -0.6332277718660897 -0.1353926304622629
atom 0.0000000000000000 36.8199999999999932 0.0000000000000000 Ar
    velocity 0.3079030971055858 0.0203087510098645 0.9841128332468558
atom 5.2599999999999998 36.8199999999999932 0.0000000000000000 Ar
    velocity -1.2097634596149183 1.5607104447476638 0.6211112822122372
atom 10.5199999999999996 36.8199999999999932 0.0000000000000000 Ar
    velocity -0.3109270129317742 0.2034573339773110 0.2022287893760937
atom 15.7799999999999994 36.8199999999999932 0.0000000000000000 Ar
    velocity -0.4223120706784734 0.1988601003380848 0.0975952293532702
atom 21.0399999999999991 36.8199999999999932 0.0000000000000000 Ar
    velocity 1.8779081350565923 1.0697480073215895 -1.4974013622433020
atom 26.2999999999999972 36.8199999999999932 0.0000000000000000 Ar
    velocity 1.0182227955012340 0.2055221791114906 0.6659964876997057
atom 31.5599999999999987 36.8199999999999932 0.0000000000000000 Ar
    velocity -0.9814393141813388 0.4968422210582240 1.0854701740692756
atom 36.8200000000000003 36.8199999999999932 0.0000000000000000 Ar
    velocity -0.8034825088750975 -0.9165769935834198 -0.5025885852209344
atom 42.0799999999999983 36.8199999999999932 0.0000000000000000 Ar
    velocity 0.8866615865040431 -0.4308514475496172 0.6528967646099425
atom 47.3399999999999963 36.8199999999999932 0.0000000000000000 Ar
    velocity -1.0081517530416115 0.3418792240221155 1.1106683028611020
atom 52.5999999999999943 36.8199999999999932 0.0000000000000000 Ar
    velocity -0.2579272721537638 0.3379000435989725 0.1100219047545675
atom 57.8599999999999994 36.8199999999999932 0.0000000000000000 Ar
    velocity 0.5841713346745961 0.3915153140390804 1.2559394864464875
atom 63.1199999999999974 36.8199999999999932 0.0000000000000000 Ar
    velocity 0.2944996029701549 0.9419935276872368 0.7482726944790389
atom 68.3800000000000097 36.8199999999999932 0.0000000000000000 Ar
    velocity 0.1453274078143804 0.3911478628201736 0.4871354603674991
atom 0.0000000000000000 42.0799999999999983 0.0000000000000000 Ar
    velocity 0.1817678229912579 1.0288145555158161 -0.6092278856874023
atom 5.2599999999999998 42.0799999999999983 0.0000000000000000 Ar
    velocity 0.3121549143607957 -0.5764441694079863 -0.6922047022710013
atom 10.5199999999999996 42.0799999999999983 0.0000000000000000 Ar
    velocity -1.3508131232668568 -0.3852600043000580 0.5012481800660873
atom 15.7799999999999994 42.0799999999999983 0.0000000000000000 Ar
    velocity -0.4483211569479032 0.8741850666891121 -0.5834504633632090
atom 21.0399999999999991 42.0799999999999983 0.0000000000000000 Ar
    velocity 1.1217316362861098 -0.2454143694053667 0.7373142595731030
atom 26.2999999999999972 42.0799999999999983 0.0000000000000000 Ar
    velocity 0.1752647779432696 0.1726080169796910 0.5694172544410915
atom 31.5599999999999987 42.0799999999999983 0.0000000000000000 Ar
    velocity 0.2792210561813105 -0.4444192287118352 -0.0911335019362642
atom 36.8200000000000003 42.0799999999999983 0.0000000000000000 Ar
    velocity -0.6390862288042182 0.3241767458998722 -0.7622861695788881
atom 42.0799999999999983 42.0799999999999983 0.0000000000000000 Ar
    velocity -0.2059655485246321 0.0791967624944745 -1.3656177377552858
atom 47.3399999999999963 42.0799999999999983 0.0000000000000000 Ar
    velocity 0.6808749973142920 0.7376867192400607 0.1486925909448227
atom 52.5999999999999943 42.0799999999999983 0.0000000000000000 Ar
    velocity -0.3941044188900493 -1.8499920705194581 -0.7811138686837331
atom 57.8599999999999994 42.0799999999999983 0.0000000000000000 Ar
    velocity 0.7933400119120355 1.8498687670971687 1.0867489026519688
atom 63.1199999999999974 42.0799999999999983 0.0000000000000000 Ar
    velocity -1.9206399817406947 -0.6887440150174895 -2.0855658458408333
atom 68.3800000000000097 42.0799999999999983 0.0000000000000000 Ar
    velocity -0.6914612435854717 -0.6996473830255422 -0.7415571008435898
atom 0.0000000000000000 47.3399999999999963 0.0000000000000000 Ar
    velocity -0.2572825799856491 0.7482542860810730 0.4203068327754046
atom 5.2599999999999998 47.3399999999999963 0.0000000000000000 Ar
    velocity -0.1237667562706509 1.8552887466534818 0.1824221203414084
atom 10.5199999999999996 47.3399999999999963 0.0000000000000000 Ar
    velocity 0.8592385572838985 0.5541548652634416 -1.1321784431459332
atom 15.7799999999999994 47.3399999999999963 0.0000000000000000 Ar
    velocity 0.8541721779503832 0.0427486523972918 -0.0646516050925703
atom 21.0399999999999991 47.3399999999999963 0.0000000000000000 Ar
    velocity 0.2439441821823327 -0.5931621533719199 -0.6128094167449614
atom 26.2999999999999972 47.3399999999999963 0.0000000000000000 Ar
    velocity 0.2504723045507582 -1.0618047784674673 0.0382152205623328
atom 31.5599999999999987 47.3399999999999963 0.0000000000000000 Ar
    velocity 0.7477533869161437 0.5070642907913189 -0.3794255059885623
atom 36.8200000000000003 47.3399999999999963 0.0000000000000000 Ar
    velocity -0.7428627442826237 -0.8402802581834061 0.0169534667308163
atom 42.0799999999999983 47.3399999999999963 0.0000000000000000 Ar
    velocity -0.8350894451439803 0.3777689680973290 0.2634005241479806
atom 47.3399999999999963 47.3399999999999963 0.0000000000000000 Ar
    velocity -0.6005005802536261 0.5238503917295169 0.1332154813758556
atom 52.5999999999999943 47.3399999999999963 0.0000000000000000 Ar
    velocity -1.3929550303464220 -2.0044282738506678 0.2602462148794936
atom 57.8599999999999994 47.3399999999999963 0.0000000000000000 Ar
    velocity 0.6046254082477779 0.0982190163505944 0.2250713357657321
atom 63.1199999999999974 47.3399999999999963 0.0000000000000000 Ar
    velocity -0.1559230714989120 0.8279856728660713 -0.3122378754938480
atom 68.3800000000000097 47.3399999999999963 0.0000000000000000 Ar
    velocity -0.4270166914383492 0.1184442404257899 -0.4234356520073402
atom 0.0000000000000000 52.5999999999999943 0.0000000000000000 Ar
    velocity 0.2876956321282963 0.2402374829131735 0.1371529556551680
atom 5.2599999999999998 52.5999999999999943 0.0000000000000000 Ar
    velocity -0.4802100606411401 0.9171535678024020 -1.7328222582483683
atom 10.5199999999999996 52.5999999999999943 0.0000000000000000 Ar
    velocity -0.7257680881589131 -0.6407683844077980 0.3409162085754673
atom 15.7799999999999994 52.5999999999999943 0.0000000000000000 Ar
    velocity 0.7948067503240257 0.4613502519492037 0.3718716481348751
atom 21.0399999999999991 52.5999999999999943 0.0000000000000000 Ar
    velocity -0.2108233594323784 1.6591138596021320 -1.3436920755547863
atom 26.2999999999999972 52.5999999999999943 0.0000000000000000 Ar
    velocity 0.1024684179823631 0.0802724815531471 -0.3536378420593478
atom 31.5599999999999987 52.5999999999999943 0.0000000000000000 Ar
    velocity -0.9548613560265651 -0.8269990436107815 0.9368196497689906
atom 36.8200000000000003 52.5999999999999943 0.0000000000000000 Ar
    velocity -1.4472513207702109 -1.0167981712678711 -1.3099604749986677
atom 42.0799999999999983 52.5999999999999943 0.0000000000000000 Ar
    velocity 0.0996587344752998 0.1621757300223300 -1.0521621976080469
atom 47.3399999999999963 52.5999999999999943 0.0000000000000000 Ar
    velocity 0.8040770694058339 -0.5621482358495019 -0.6244356296692273
atom 52.5999999999999943 52.5999999999999943 0.0000000000000000 Ar
    velocity -0.1994230627578543 -0.6115347002027193 -1.0330011083631003
atom 57.8599999999999994 52.5999999999999943 0.0000000000000000 Ar
    velocity -0.4125799889404174 0.4323830816260091 -0.8819143058113068
atom 63.1199999999999974 52.5999999999999943 0.0000000000000000 Ar
    velocity -1.2737696706060733 0.1726958741553858 0.6743379431489447
atom 68.3800000000000097 52.5999999999999943 0.0000000000000000 Ar
    velocity 0.2776555397827505 -0.2324147287959203 0.4716823407923275
atom 0.0000000000000000 57.8599999999999923 0.0000000000000000 Ar
    velocity 1.0419313645093697 0.3852557744318227 -0.0026877315937848
atom 5.2599999999999998 57.8599999999999923 0.0000000000000000 Ar
    velocity 1.1683308367030880 0.3240465715560040 -0.5022171437102350
atom 10.5199999999999996 57.8599999999999923 0.0000000000000000 Ar
    velocity 0.1273848379799649 0.8971941571091467 -1.2260411436448870
atom 15.7799999999999994 57.8599999999999923 0.0000000000000000 Ar
    velocity -0.3424934455601461 -0.1802800994382100 -0.1813496137672143
atom 21.0399999999999991 57.8599999999999923 0.0000000000000000 Ar
    velocity -0.0992315169247791 -0.0135858991260030 -0.0597521672909896
atom 26.2999999999999972 57.8599999999999923 0.0000000000000000 Ar
    velocity 0.5069674322254419 -0.8709202106446101 -0.1345048500199783
atom 31.5599999999999987 57.8599999999999923 0.0000000000000000 Ar
    velocity -0.7631854961420124 0.1325185777507149 -0.8264924156556807
atom 36.8200000000000003 57.8599999999999923 0.0000000000000000 Ar
    velocity -0.6512399481027197 0.4265093974580456 -0.3507672671443615
atom 42.0799999999999983 57.8599999999999923 0.0000000000000000 Ar
    velocity 0.8420172057500799 -0.0870265495141703 -0.1146696101159113
atom 47.3399999999999963 57.8599999999999923 0.0000000000000000 Ar
    velocity -0.0966555766503312 -0.9603793996509375 0.2498864624029938
atom 52.5999999999999943 57.8599999999999923 0.0000000000000000 Ar
    velocity 0.9301775803149499 -0.0580417819721829 -0.4592356042855130
atom 57.8599999999999994 57.8599999999999923 0.0000000000000000 Ar
    velocity 1.3350647785125058 2.0471365643866375 -0.6462698705491369
atom 63.1199999999999974 57.8599999999999923 0.0000000000000000 Ar
    velocity -0.4640193228331218 -0.2710653542012909 -0.9401549956504325
atom 68.3800000000000097 57.8599999999999923 0.0000000000000000 Ar
    velocity -0.4302719039954075 0.7789772372948491 1.7636583529502983
atom 0.0000000000000000 63.1199999999999974 0.0000000000000000 Ar
    velocity -1.9765548060281228 1.1507060353891270 0.0145774290774066
atom 5.2599999999999998 63.1199999999999974 0.0000000000000000 Ar
    velocity -0.9559487102940846 -0.9383225458962915 0.9072447385565341
atom 10.5199999999999996 63.1199999999999974 0.0000000000000000 Ar
    velocity 0.5058459169598828 -0.0751553852517737 -0.4830398153729635
atom 15.7799999999999994 63.1199999999999974 0.0000000000000000 Ar
    velocity 0.0713443102364041 -0.4630141781014043 0.1700591537094823
atom 21.0399999999999991 63.1199999999999974 0.0000000000000000 Ar
    velocity -0.8282022622746031 -0.5624045742234528 -0.1446191638538701
atom 26.2999999999999972 63.1199999999999974 0.0000000000000000 Ar
    velocity 0.9679136891721082 0.0301205750754008 -0.2549257548698977
atom 31.5599999999999987 63.1199999999999974 0.0000000000000000 Ar
    velocity 0.5038765034417120 0.9902611971438583 0.2840855827814434
atom 36.8200000000000003 63.1199999999999974 0.0000000000000000 Ar
    velocity -0.3246458763356881 0.7844514354146211 -0.2314621816160294
atom 42.0799999999999983 63.1199999999999974 0.0000000000000000 Ar
    velocity 0.5859535314120625 -1.0320485674055104 -0.0529909146725776
atom 47.3399999999999963 63.1199999999999974 0.0000000000000000 Ar
    velocity -0.9339200158173627 -1.1447656263861756 -1.2640460021879867
atom 52.5999999999999943 63.1199999999999974 0.0000000000000000 Ar
    velocity 0.3071259119031304 -0.1561563281203455 0.8913815718165871
atom 57.8599999999999994 63.1199999999999974 0.0000000000000000 Ar
    velocity 0.8008900180885665 -1.0668987444690610 1.4421056053571633
atom 63.1199999999999974 63.1199999999999974 0.0000000000000000 Ar
    velocity -1.3485369663905449 -1.1286833853213980 0.4569405841132864
atom 68.3800000000000097 63.1199999999999974 0.0000000000000000 Ar
    velocity 0.0092752778868520 0.5454763923068857 -0.2873291976473349
atom 0.0000000000000000 68.3799999999999955 0.0000000000000000 Ar
    velocity 0.8120077506559977 0.1782539073486070 0.4599328903801675
atom 5.2599999999999998 68.3799999999999955 0.0000000000000000 Ar
    velocity 0.1222237996031592 1.5589796129222253 1.0720179505121072
atom 10.5199999999999996 68.3799999999999955 0.0000000000000000 Ar
    velocity 1.1331384625767802 2.0886797175128429 -0.8179931139357624
atom 15.7799999999999994 68.3799999999999955 0.0000000000000000 Ar
    velocity 0.9156016347056603 -0.2866989857760991 2.0197375966631195
atom 21.0399999999999991 68.3799999999999955 0.0000000000000000 Ar
    velocity -0.2955402774855406 -0.4334288553315037 0.0255326481079396
atom 26.2999999999999972 68.3799999999999955 0.0000000000000000 Ar
    velocity -0.8292599715301279 -0.9095193364770636 -0.8786818254578269
atom 31.5599999999999987 68.3799999999999955 0.0000000000000000 Ar
    velocity 0.5466885630507541 -0.0226336554807447 -0.1426894458992196
atom 36.8200000000000003 68.3799999999999955 0.0000000000000000 Ar
    velocity -1.5493657123700542 -0.5367102316438913 -0.1524279917397561
atom 42.0799999999999983 68.3799999999999955 0.0000000000000000 Ar
    velocity -0.4458698466826783 0.3530627589572586 0.5653478500047370
atom 47.3399999999999963 68.3799999999999955 0.0000000000000000 Ar
    velocity -0.1151898055539686 0.7273271823754178 -0.2989093597877384
atom 52.5999999999999943 68.3799999999999955 0.0000000000000000 Ar
    velocity -0.6003145976820466 -0.4598921102215230 -1.7736088274145418
atom 57.8599999999999994 68.3799999999999955 0.0000000000000000 Ar
    velocity -0.5907904841053792 -0.1361638165262901 -0.2275441857874428
atom 63.1199999999999974 68.3799999999999955 0.0000000000000000 Ar
    velocity 1.0275452032133705 1.1631909065298256 1.0654735355537783
atom 68.3800000000000097 68.3799999999999955 0.0000000000000000 Ar
    velocity 0.3108516259710707 0.2976039685372502 1.3834981782534450
atom 0.0000000000000000 73.6399999999999864 0.0000000000000000 Ar
    velocity 1.2564050535792644 -1.3265416099386915 0.4476513288670080
atom 5.2599999999999998 73.6399999999999864 0.0000000000000000 Ar
    velocity 0.5968202235669688 0.5617130549043254 -0.5658308819752139
atom 10.5199999999999996 73.6399999999999864 0.0000000000000000 Ar
    velocity 1.1226202025906351 -1.1137349695916849 -0.0525523199358559
atom 15.7799999999999994 73.6399999999999864 0.0000000000000000 Ar
    velocity 0.6955486898099636 0.1844079179811730 -1.3527278217805943
atom 21.0399999999999991 73.6399999999999864 0.0000000000000000 Ar
    velocity 0.9269168728212578 -0.5932660497196881 -0.7177648301216019
atom 26.2999999999999972 73.6399999999999864 0.0000000000000000 Ar
    velocity -0.6870596792107656 0.7270474766329276 -1.4768829106060686
atom 31.5599999999999987 73.6399999999999864 0.0000000000000000 Ar
    velocity 0.7678741433611395 -0.1974736648917289 -1.3979976345644660
atom 36.8200000000000003 73.6399999999999864 0.0000000000000000 Ar
    velocity -0.7543747840339123 0.4775250441251110 1.3622012804734425
atom 42.0799999999999983 73.6399999999999864 0.0000000000000000 Ar
    velocity -0.4277781288195858 0.6186464984664812 1.0915741217939048
atom 47.3399999999999963 73.6399999999999864 0.0000000000000000 Ar
    velocity 0.7136175355249427 -0.9154880960731461 1.4276099230164301
atom 52.5999999999999943 73.6399999999999864 0.0000000000000000 Ar
    velocity -0.0642198581166917 0.5713785288636202 -0.9772038845952826
atom 57.8599999999999994 73.6399999999999864 0.0000000000000000 Ar
    velocity -0.3316065693020602 0.5830324636601355 -0.5158099495431639
atom 63.1199999999999974 73.6399999999999864 0.0000000000000000 Ar
    velocity -1.4960196278260618 -0.6104615579731112 -1.0221964829056787
atom 68.3800000000000097 73.6399999999999864 0.0000000000000000 Ar
    velocity -1.2372306623505211 0.2370821863179948 0.0312523774449944
atom 0.0000000000000000 0.0000000000000000 5.2599999999999998 Ar
    velocity -0.6299928284193431 -0.2969734556225192 0.3443807491026557
atom 5.2599999999999998 0.0000000000000000 5.2599999999999998 Ar
    velocity 0.2789239295835755 -0.0500949737308665 0.5355033798020055
atom 10.5199999999999996 0.0000000000000000 5.2599999999999998 Ar
    velocity 0.8544705789235766 1.1330184331812738 0.6264065584099650
atom 15.7799999999999994 0.0000000000000000 5.2599999999999998 Ar