#=======================================================
# FHI-aims file: argon_8112_30k.in
# Created using the Atomic Simulation Environment (ASE)
# Tue Jun 15 19:24:53 2021
#=======================================================
lattice_vector 63.1199999999999974 0.0000000000000000 0.0000000000000000 
lattice_vector 0.0000000000000000 68.3799999999999955 0.0000000000000000 
lattice_vector 0.0000000000000000 0.0000000000000000 68.3799999999999955 
atom 0.0000000000000000 0.0000000000000000 0.0000000000000000 Ar
    velocity -0.5196907865121505 0.3689577642675495 -0.7326336589275528
atom 5.2600000000000007 0.0000000000000000 0.0000000000000000 Ar
    velocity 0.5428386184644296 0.1702204773839962 -1.0555459073447075
atom 10.5200000000000014 0.0000000000000000 0.0000000000000000 Ar
    velocity -0.8676133438401548 -1.4328550415581653 0.9378967508416177
atom 15.7799999999999994 0.0000000000000000 0.0000000000000000 Ar
    velocity -0.5550411459623317 -1.5704028534601997 -0.4678725977400736
atom 21.0400000000000027 0.0000000000000000 0.0000000000000000 Ar
    velocity -0.3501043860125838 0.2149656918509229 -0.3255045931343385
atom 26.2999999999999972 0.0000000000000000 0.0000000000000000 Ar
    velocity 0.8623144346669359 0.4713919301787459 -0.3421892048552893
atom 31.5599999999999987 0.0000000000000000 0.0000000000000000 Ar
    velocity 1.2040234553601299 1.1330934077409203 -0.1558167643562163
atom 36.8199999999999932 0.0000000000000000 0.0000000000000000 Ar
    velocity 0.8391949937999404 -1.9844490575191704 0.8412963992366229
atom 42.0800000000000054 0.0000000000000000 0.0000000000000000 Ar
    velocity 0.2374378831550886 0.0416871899582829 0.1991170494327243
atom 47.3399999999999963 0.0000000000000000 0.0000000000000000 Ar
    velocity 0.2429215128988102 -0.0890859892921571 1.9915975589770716
atom 52.5999999999999943 0.0000000000000000 0.0000000000000000 Ar
    velocity -1.1433698090133468 1.1637686458490526 -1.0383036105477774
atom 57.8599999999999923 0.0000000000000000 0.0000000000000000 Ar
    velocity -0.1810061905627234 -0.0050720961925855 0.2822026868026264
atom 0.0000000000000000 5.2599999999999998 0.0000000000000000 Ar
    velocity -1.1598567086016769 -0.4408908549340160 0.1492484365647810
atom 5.2600000000000007 5.2599999999999998 0.0000000000000000 Ar
    velocity 0.3691752718875430 1.4013718016234566 0.7377552021136988
atom 10.5200000000000014 5.2599999999999998 0.0000000000000000 Ar
    velocity -1.0230077180822787 -0.7897381715598776 1.2329166177499120
atom 15.7799999999999994 5.2599999999999998 0.0000000000000000 Ar
    velocity 0.4389714843876981 -1.2437696856530809 1.1733659682211681
atom 21.0400000000000027 5.2599999999999998 0.0000000000000000 Ar
    velocity -0.6642681733543404 1.1162255486341752 0.1101659415131362
atom 26.2999999999999972 5.2599999999999998 0.0000000000000000 Ar
    velocity 1.0150376025860874 -1.2763989671093745 -0.3387861225242531
atom 31.5599999999999987 5.2599999999999998 0.0000000000000000 Ar
    velocity -1.8858442949826209 -0.8705239915953866 0.5272461813190585
atom 36.8199999999999932 5.2599999999999998 0.0000000000000000 Ar
    velocity 0.3587810412904181 0.0975758496639817 -0.2772408554894649
atom 42.0800000000000054 5.2599999999999998 0.0000000000000000 Ar
    velocity -0.4896670666060757 0.8288177779634339 -1.2902489716527730
atom 47.3399999999999963 5.2599999999999998 0.0000000000000000 Ar
    velocity 1.1989883563438120 0.0595072970326599 0.6107850327764135
atom 52.5999999999999943 5.2599999999999998 0.0000000000000000 Ar
    velocity -0.6867275298426525 -0.9299501946196983 -0.0640412145396513
atom 57.8599999999999923 5.2599999999999998 0.0000000000000000 Ar
    velocity -0.4828103212771570 -0.8626849043350506 -0.4864538924014025
atom 0.0000000000000000 10.5199999999999996 0.0000000000000000 Ar
    velocity 0.1966563065465244 -0.9037390455706741 -0.0208865548938497
atom 5.2600000000000007 10.5199999999999996 0.0000000000000000 Ar
    velocity 0.8699315046479692 1.3201862288244843 0.1398074340680115
atom 10.5200000000000014 10.5199999999999996 0.0000000000000000 Ar
    velocity -0.9237816755302735 -1.2281493463002855 -1.2916852399057428
atom 15.7799999999999994 10.5199999999999996 0.0000000000000000 Ar
    velocity -0.2382777917252367 0.5655812997693805 1.4430196436839047
atom 21.0400000000000027 10.5199999999999996 0.0000000000000000 Ar
    velocity -0.9730812387538447 -0.5866719358150081 -0.5915288837028223
atom 26.2999999999999972 10.5199999999999996 0.0000000000000000 Ar
    velocity 0.0191397390892654 -0.2984128508468720 0.7971451522913258
atom 31.5599999999999987 10.5199999999999996 0.0000000000000000 Ar
    velocity 0.0406280832733053 0.1201856408315678 1.1198560215194822
atom 36.8199999999999932 10.5199999999999996 0.0000000000000000 Ar
    velocity -0.6262280324169189 0.1818901314630826 0.5700054143364218
atom 42.0800000000000054 10.5199999999999996 0.0000000000000000 Ar
    velocity 1.0304219346257035 0.7362032691086050 0.6030300267295985
atom 47.3399999999999963 10.5199999999999996 0.0000000000000000 Ar
    velocity 0.2159622787494940 -0.6704081171386761 -0.4284311798146109
atom 52.5999999999999943 10.5199999999999996 0.0000000000000000 Ar
    velocity 0.2459235754364979 0.2174609039492277 0.2897029289984932
atom 57.8599999999999923 10.5199999999999996 0.0000000000000000 Ar
    velocity -0.1529948659562957 0.3411640975152722 0.8119598526728939
atom 0.0000000000000000 15.7799999999999976 0.0000000000000000 Ar
    velocity 0.8421173390367095 0.5993639279234746 0.5921800469161488
atom 5.2600000000000007 15.7799999999999976 0.0000000000000000 Ar
    velocity -0.9218675823598429 -0.8899345874498624 -1.5120604458012861
atom 10.5200000000000014 15.7799999999999976 0.0000000000000000 Ar
    velocity 0.7542228192703386 0.0896207533457351 -0.2849601196997978
atom 15.7799999999999994 15.7799999999999976 0.0000000000000000 Ar
    velocity 0.2395665628935772 -0.2623289067288488 -0.7976560433686003
atom 21.0400000000000027 15.7799999999999976 0.0000000000000000 Ar
    velocity -0.2722224068342678 0.2844746292467714 1.2053713205849699
atom 26.2999999999999972 15.7799999999999976 0.0000000000000000 Ar
    velocity -0.7608492843588496 0.8492141636912484 0.4066448415266292
atom 31.5599999999999987 15.7799999999999976 0.0000000000000000 Ar
    velocity 0.2982737934743500 -1.0267164446733457 0.8568015946084024
atom 36.8199999999999932 15.7799999999999976 0.0000000000000000 Ar
    velocity 0.9573676323660981 1.1885738075303731 -0.6964651033008322
atom 42.0800000000000054 15.7799999999999976 0.0000000000000000 Ar
    velocity 0.1775490009210288 1.2246161765398555 1.4623523676980199
atom 47.3399999999999963 15.7799999999999976 0.0000000000000000 Ar
    velocity 1.5573330808058996 0.3450555083700215 0.7178090862474729
atom 52.5999999999999943 15.7799999999999976 0.0000000000000000 Ar
    velocity -0.2266589162037802 -0.7657411114429434 0.9377789681589602
atom 57.8599999999999923 15.7799999999999976 0.0000000000000000 Ar
    velocity -1.6971297551416524 -0.0331363503641252 0.2602897573468350
atom 0.0000000000000000 21.0399999999999991 0.0000000000000000 Ar
    velocity -0.3814513140452481 -0.1313991628112570 0.6822923926464041
atom 5.2600000000000007 21.0399999999999991 0.0000000000000000 Ar
    velocity 0.0840516885746226 0.0468303270222501 1.0578824480725317
atom 10.5200000000000014 21.0399999999999991 0.0000000000000000 Ar
    velocity -0.2906200060747624 -1.0424299568525213 -0.1608266859808842
atom 15.7799999999999994 21.0399999999999991 0.0000000000000000 Ar
    velocity 0.6643398207042193 1.3495908634995120 -1.2828317030187151
atom 21.0400000000000027 21.0399999999999991 0.0000000000000000 Ar
    velocity -1.3619468170597109 -0.2188458037080495 -0.7750063851441082
atom 26.2999999999999972 21.0399999999999991 0.0000000000000000 Ar
    velocity 0.6314569000964184 0.2016810879255237 -0.4953831525642647
atom 31.5599999999999987 21.0399999999999991 0.0000000000000000 Ar
    velocity 0.3744760288286628 -0.3844323854676857 0.1838127261155977
atom 36.8199999999999932 21.0399999999999991 0.0000000000000000 Ar
    velocity -0.3252285436590988 -0.2028852622259010 -1.5353474618671017
atom 42.0800000000000054 21.0399999999999991 0.0000000000000000 Ar
    velocity -0.5430359580762864 -0.3100067473343630 0.1055443084110136
atom 47.3399999999999963 21.0399999999999991 0.0000000000000000 Ar
    velocity 1.1022445511725505 0.5804100452770284 -0.6550091248535601
atom 52.5999999999999943 21.0399999999999991 0.0000000000000000 Ar
    velocity -0.8064227839719345 -0.8705716716005591 0.0326390080191167
atom 57.8599999999999923 21.0399999999999991 0.0000000000000000 Ar
    velocity -0.7656266704071962 -0.0138964791585291 -0.0676881478210777
atom 0.0000000000000000 26.3000000000000007 0.0000000000000000 Ar
    velocity -0.6838717794669595 -0.1429905901910757 0.9952046560160820
atom 5.2600000000000007 26.3000000000000007 0.0000000000000000 Ar
    velocity 1.1385105520251244 0.0957775598481858 1.3112954841743478
atom 10.5200000000000014 26.3000000000000007 0.0000000000000000 Ar
    velocity 0.7479631483060718 1.3503441923365003 -0.3446344353768420
atom 15.7799999999999994 26.3000000000000007 0.0000000000000000 Ar
    velocity 0.1933726658202109 0.7228564243244832 -1.9258866966420500
atom 21.0400000000000027 26.3000000000000007 0.0000000000000000 Ar
    velocity 0.0341302178031900 -0.7690664915464277 0.7853724677030359
atom 26.2999999999999972 26.3000000000000007 0.0000000000000000 Ar
    velocity -0.8608658665449603 0.4945802275329610 -0.8354514694698814
atom 31.5599999999999987 26.3000000000000007 0.0000000000000000 Ar
    velocity -0.6973446426766853 -0.2043953500763824 0.5118388675045008
atom 36.8199999999999932 26.3000000000000007 0.0000000000000000 Ar
    velocity 0.9586831128608558 -0.1802464107035794 -2.0209085781992298
atom 42.0800000000000054 26.3000000000000007 0.0000000000000000 Ar
    velocity 2.1002877500375510 -0.6973915131587034 0.2648745379896504
atom 47.3399999999999963 26.3000000000000007 0.0000000000000000 Ar
    velocity -0.3554200240804177 0.5048372455076110 -1.3817115877231603
atom 52.5999999999999943 26.3000000000000007 0.0000000000000000 Ar
    velocity -0.8623366548331032 -0.3450202335911970 2.3729261032197115
atom 57.8599999999999923 26.3000000000000007 0.0000000000000000 Ar
    velocity 0.3430234757247335 0.8046647663149956 0.6367911724971967
atom 0.0000000000000000 31.5599999999999952 0.0000000000000000 Ar
    velocity 0.5114692781937448 0.9081073668891601 -0.5890898245399985
atom 5.2600000000000007 31.5599999999999952 0.0000000000000000 Ar
    velocity 1.5431528045976584 0.9124868010826960 0.5883073243136566
atom 10.5200000000000014 31.5599999999999952 0.0000000000000000 Ar
    velocity 1.2844365324861180 0.0621241887554724 -0.2824159288769161
atom 15.7799999999999994 31.5599999999999952 0.0000000000000000 Ar
    velocity 0.8006732960906322 -0.6756104180333309 0.8953440446657266
atom 21.0400000000000027 31.5599999999999952 0.0000000000000000 Ar
    velocity -0.2303222151599131 -0.9849900842507483 1.0535327885328782
atom 26.2999999999999972 31.5599999999999952 0.0000000000000000 Ar
    velocity 1.1377395709120812 -0.1184487973203134 -0.6257552011155213
atom 31.5599999999999987 31.5599999999999952 0.0000000000000000 Ar
    velocity 0.0204635721025965 0.3856392222373023 1.3161900834962930
atom 36.8199999999999932 31.5599999999999952 0.0000000000000000 Ar
    velocity 0.1003188498961160 -0.7767089169512539 0.9243121908252030
atom 42.0800000000000054 31.5599999999999952 0.0000000000000000 Ar
    velocity 0.3204738632990157 -0.3519706959029839 -1.3193899201418615
atom 47.3399999999999963 31.5599999999999952 0.0000000000000000 Ar
    velocity -0.6620229127003064 0.0224331153176318 -0.3358345131558691
atom 52.5999999999999943 31.5599999999999952 0.0000000000000000 Ar
    velocity 0.3765919550254205 -0.0645662970843347 0.0547786037401988
atom 57.8599999999999923 31.5599999999999952 0.0000000000000000 Ar
    velocity -0.1416710550732284 1.2022891035216674 -0.6025742087849607
atom 0.0000000000000000 36.8199999999999932 0.0000000000000000 Ar
    velocity -0.2195626000875614 0.8517661656388126 0.5585798811836895
atom 5.2600000000000007 36.8199999999999932 0.0000000000000000 Ar
    velocity 0.1739487136936234 0.8966572447140582 1.1265251960921074
atom 10.5200000000000014 36.8199999999999932 0.0000000000000000 Ar
    velocity 1.0999335248944453 1.4005483563041381 -1.5240480218353536
atom 15.7799999999999994 36.8199999999999932 0.0000000000000000 Ar
    velocity -0.7864730923901098 0.0827665673939916 0.5117822682148733
atom 21.0400000000000027 36.8199999999999932 0.0000000000000000 Ar
    velocity 0.0012920950277475 -0.4195346971320346 -1.0772982077055988
atom 26.2999999999999972 36.8199999999999932 0.0000000000000000 Ar
    velocity 0.5469918594001776 0.6024169003123520 -0.7362945987214822
atom 31.5599999999999987 36.8199999999999932 0.0000000000000000 Ar
    velocity 0.5985890409334933 -1.6923586990162593 0.3018911609835389
atom 36.8199999999999932 36.8199999999999932 0.0000000000000000 Ar
    velocity 1.0279285614437046 0.7870487193135354 -0.6592031390243457
atom 42.0800000000000054 36.8199999999999932 0.0000000000000000 Ar
    velocity -0.3594856732873861 0.5712174396081059 -0.4881206571770059
atom 47.3399999999999963 36.8199999999999932 0.0000000000000000 Ar
    velocity 0.4140443216972490 -0.0002760540008688 -1.1251171855951809
atom 52.5999999999999943 36.8199999999999932 0.0000000000000000 Ar
    velocity 0.3423702505285204 0.4312048350937858 -0.5022233723447225
atom 57.8599999999999923 36.8199999999999932 0.0000000000000000 Ar
    velocity 0.0261316573436481 -0.5217415739805084 -0.4107600831887248
atom 0.0000000000000000 42.0799999999999983 0.0000000000000000 Ar
    velocity 0.6868585051402977 -0.2609610267899993 0.0221051145400337
atom 5.2600000000000007 42.0799999999999983 0.0000000000000000 Ar
    velocity -1.1246695189699041 0.6933914926278376 0.1397256532377983
atom 10.5200000000000014 42.0799999999999983 0.0000000000000000 Ar
    velocity 0.4899737411899664 0.8355261611826016 -0.9520859237791164
atom 15.7799999999999994 42.0799999999999983 0.0000000000000000 Ar
    velocity 0.3966327932399181 0.9883444863403804 -1.0071064214272294
atom 21.0400000000000027 42.0799999999999983 0.0000000000000000 Ar
    velocity -0.6411989014416802 -0.4356794029104186 -0.5408224121248041
atom 26.2999999999999972 42.0799999999999983 0.0000000000000000 Ar
    velocity 0.7414991930567594 0.1976107261676848 -0.4451082847882221
atom 31.5599999999999987 42.0799999999999983 0.0000000000000000 Ar
    velocity 1.5013400623190734 -0.4705418625003246 -0.9975815124962926
atom 36.8199999999999932 42.0799999999999983 0.0000000000000000 Ar
    velocity -0.3547344852302121 1.3333212674751322 0.4501411879769401
atom 42.0800000000000054 42.0799999999999983 0.0000000000000000 Ar
    velocity 0.7545720037499968 0.5362532574127221 -1.8907043075631158
atom 47.3399999999999963 42.0799999999999983 0.0000000000000000 Ar
    velocity 0.2194484084725014 0.7921933467048835 -1.8515191852578097
atom 52.5999999999999943 42.0799999999999983 0.0000000000000000 Ar
    velocity -1.2029991745899675 1.2539559297306622 0.8229653613764117
atom 57.8599999999999923 42.0799999999999983 0.0000000000000000 Ar
    velocity 0.5249764450587744 0.5674064289263517 -1.0410935708079527
atom 0.0000000000000000 47.3399999999999963 0.0000000000000000 Ar
    velocity -0.6460030692910678 0.0465154933219601 0.5359809238839255
atom 5.2600000000000007 47.3399999999999963 0.0000000000000000 Ar
    velocity 0.1272669516540584 0.3201099343449344 1.4652427523846827
atom 10.5200000000000014 47.3399999999999963 0.0000000000000000 Ar
    velocity 0.0928288093302552 -0.7443785729135050 0.4822515123097691
atom 15.7799999999999994 47.3399999999999963 0.0000000000000000 Ar
    velocity 0.6788223234152843 -0.4203873517074818 -0.4458606148161775
atom 21.0400000000000027 47.3399999999999963 0.0000000000000000 Ar
    velocity 1.0608246478446539 0.0467713279871052 0.1779421625955228
atom 26.2999999999999972 47.3399999999999963 0.0000000000000000 Ar
    velocity 0.2758852586134081 -1.0957096850483781 -0.4630823944399102
atom 31.5599999999999987 47.3399999999999963 0.0000000000000000 Ar
    velocity -1.1254138948276187 0.7007001484876071 -1.5252755733123542
atom 36.8199999999999932 47.3399999999999963 0.0000000000000000 Ar
    velocity 0.8794880094315690 0.4083821962490336 0.0170931649490796
atom 42.0800000000000054 47.3399999999999963 0.0000000000000000 Ar
    velocity -0.1525835700312186 -1.5111522712688192 0.6494082650213763
atom 47.3399999999999963 47.3399999999999963 0.0000000000000000 Ar
    velocity -0.1549243445682646 1.0543968189797579 -0.5217607697120186
atom 52.5999999999999943 47.3399999999999963 0.0000000000000000 Ar
    velocity -0.1958571899750947 0.8605557674559455 -0.9409724864440986
atom 57.8599999999999923 47.3399999999999963 0.0000000000000000 Ar
    velocity -0.8708746705238524 0.5041296439628330 0.4751999827578872
atom 0.0000000000000000 52.6000000000000014 0.0000000000000000 Ar
    velocity 0.2485826030189723 -0.8540789074325835 1.2177320288196569
atom 5.2600000000000007 52.6000000000000014 0.0000000000000000 Ar
    velocity -0.0097796195002672 0.9773909333243826 0.5288629742527577
atom 10.5200000000000014 52.6000000000000014 0.0000000000000000 Ar
    velocity -0.1714434684738404 -0.3457549252554785 -0.4128115754928622
atom 15.7799999999999994 52.6000000000000014 0.0000000000000000 Ar
    velocity -0.5448485368642506 -1.4151045381478622 0.4615536571591399
atom 21.0400000000000027 52.6000000000000014 0.0000000000000000 Ar
    velocity 0.1769710555715756 1.5124576443161566 -0.4603632596143866
atom 26.2999999999999972 52.6000000000000014 0.0000000000000000 Ar
    velocity -0.9932649567444993 0.7237369406448722 -0.9353253556382786
atom 31.5599999999999987 52.6000000000000014 0.0000000000000000 Ar
    velocity -1.7689166845588684 1.1020249352152962 1.5968126415482244
atom 36.8199999999999932 52.6000000000000014 0.0000000000000000 Ar
    velocity 0.2120252298039015 -0.0309959660639329 -0.7994902824083151
atom 42.0800000000000054 52.6000000000000014 0.0000000000000000 Ar
    velocity 0.1770163090457583 -1.6533190557370834 -0.5333932717430631
atom 47.3399999999999963 52.6000000000000014 0.0000000000000000 Ar
    velocity -0.1273177416560116 0.2639131626390180 -1.0276394408315259
atom 52.5999999999999943 52.6000000000000014 0.0000000000000000 Ar
    velocity 0.2159028543314894 0.0131606508223876 1.1965949854915368
atom 57.8599999999999923 52.6000000000000014 0.0000000000000000 Ar
    velocity 0.0687190313811273 -0.1006914836044036 -0.9146951816128186
atom 0.0000000000000000 57.8600000000000065 0.0000000000000000 Ar
    velocity 1.1878566136015021 -0.1871323969250462 -1.1039192111895904
atom 5.2600000000000007 57.8600000000000065 0.0000000000000000 Ar
    velocity 0.3201526540317994 -0.5679938523743452 -0.8100207636749858
atom 10.5200000000000014 57.8600000000000065 0.0000000000000000 Ar
    velocity -0.8934557846177681 0.3299762308054169 0.8033680094661816
atom 15.7799999999999994 57.8600000000000065 0.0000000000000000 Ar
    velocity -1.1108691128611796 0.3636217230791575 0.0875472808970808
atom 21.0400000000000027 57.8600000000000065 0.0000000000000000 Ar
    velocity 0.5019960791611801 0.2753684788146734 0.6779615916383154
atom 26.2999999999999972 57.8600000000000065 0.0000000000000000 Ar
    velocity -0.5605680168675512 -0.1080467334734651 -1.2546496233551505
atom 31.5599999999999987 57.8600000000000065 0.0000000000000000 Ar
    velocity 0.2438526094991714 0.1190009003818491 -2.0707566533686550
atom 36.8199999999999932 57.8600000000000065 0.0000000000000000 Ar
    velocity -0.0566834307195308 -0.9200529211291971 0.0811969704687072
atom 42.0800000000000054 57.8600000000000065 0.0000000000000000 Ar
    velocity 0.2270973964458107 0.2794256344309571 1.1979171949961163
atom 47.3399999999999963 57.8600000000000065 0.0000000000000000 Ar
    velocity -1.3997037141001079 0.0017153011313502 0.6927094925574491
atom 52.5999999999999943 57.8600000000000065 0.0000000000000000 Ar
    velocity 0.8269680905540592 -1.2092758844949680 0.3609122599523402
atom 57.8599999999999923 57.8600000000000065 0.0000000000000000 Ar
    velocity 0.0917697074513457 -0.2790100106061314 0.1124482158479937
atom 0.0000000000000000 63.1199999999999903 0.0000000000000000 Ar
    velocity 0.4674056481614122 1.1306033378743474 0.0066187998979707
atom 5.2600000000000007 63.1199999999999903 0.0000000000000000 Ar
    velocity -0.6281009240579228 -1.1756595660054405 -0.1815671019417710
atom 10.5200000000000014 63.1199999999999903 0.0000000000000000 Ar
    velocity -0.3388199787650018 -1.2123052535488017 -0.2967177766684662
atom 15.7799999999999994 63.1199999999999903 0.0000000000000000 Ar
    velocity 0.6221059192450129 -0.7583384378476162 -0.1204819751604647
atom 21.0400000000000027 63.1199999999999903 0.0000000000000000 Ar
    velocity -1.8490568612256324 -0.1245712654836669 -1.2932283710117642
atom 26.2999999999999972 63.1199999999999903 0.0000000000000000 Ar
    velocity -0.6012320992808681 -0.0844645541825224 0.6986999073500513
atom 31.5599999999999987 63.1199999999999903 0.0000000000000000 Ar
    velocity 0.2732550549048580 0.2949080670854433 0.2379945365507460
atom 36.8199999999999932 63.1199999999999903 0.0000000000000000 Ar
    velocity 0.6960215965084826 0.4398582120841490 1.2056384053074811
atom 42.0800000000000054 63.1199999999999903 0.0000000000000000 Ar
    velocity -0.0223614325378054 -1.5685475446596420 0.0515078058774990
atom 47.3399999999999963 63.1199999999999903 0.0000000000000000 Ar
    velocity -0.7106138953260946 -1.0741554632200949 -0.1995625489884563
atom 52.5999999999999943 63.1199999999999903 0.0000000000000000 Ar
    velocity -1.0627583614787546 -0.0344251888379801 1.2341124113955628
atom 57.8599999999999923 63.1199999999999903 0.0000000000000000 Ar
    velocity 0.7489275390487331 0.0979725375067150 0.8225094686113256
atom 0.0000000000000000 0.0000000000000000 5.2599999999999998 Ar
    velocity -0.1627802798681096 -0.3534398171152717 -0.4440607041911049
atom 5.2600000000000007 0.0000000000000000 5.2599999999999998 Ar
    velocity -0.7310985470746857 -0.6272047740840595 -0.1688795112778962
atom 10.5200000000000014 0.0000000000000000 5.2599999999999998 Ar
    velocity -0.1036919222637500 -1.1633582593272378 0.0441707511475549
atom 15.7799999999999994 0.0000000000000000 5.2599999999999998 Ar
    velocity -0.1874931661408306 -0.2058355590609498 -1.5146008717165838
atom 21.0400000000000027 0.0000000000000000 5.2599999999999998 Ar
    velocity -1.1084456634283550 -0.5667600318381414 -0.0893885781839685
atom 26.2999999999999972 0.0000000000000000 5.2599999999999998 Ar
    velocity -0.3638331221226475 0.2183710387133710 -0.4357491081533529
atom 31.5599999999999987 0.0000000000000000 5.2599999999999998 Ar
    velocity -1.2338904937043838 0.5649355789477645 0.5348944047011949
atom 36.8199999999999932 0.0000000000000000 5.2599999999999998 Ar
    velocity 0.0231379805018942 -0.1293487013878123 -0.1416949780187953
atom 42.0800000000000054 0.0000000000000000 5.2599999999999998 Ar
    velocity -0.6430371959669718 0.0836972066938378 -1.1104507615411314
atom 47.3399999999999963 0.0000000000000000 5.2599999999999998 Ar
    velocity -0.0018152145487749 0.3909664715044306 -1.8289068182428683
atom 52.5999999999999943 0.0000000000000000 5.2599999999999998 Ar
    velocity 0.0307709820189806 0.1272033556181609 -0.3244442880647008
atom 57.8599999999999923 0.0000000000000000 5.2599999999999998 Ar
    velocity -0.9434582506133917 0.8877160909990973 -0.2770875069153635
atom 0.0000000000000000 5.2599999999999998 5.2599999999999998 Ar
    velocity -0.1028822328954393 -1.0635992475724896 -0.9878953169216708
atom 5.2600000000000007 5.2599999999999998 5.2599999999999998 Ar
    velocity 0.0092692638690030 -1.5326198648256570 -0.8600787700521665
atom 10.5200000000000014 5.2599999999999998 5.2599999999999998 Ar
    velocity -1.2873199705982146 -1.4526801496617734 1.1566402960704640
atom 15.7799999999999994 5.2599999999999998 5.2599999999999998 Ar
    velocity 1.1550519820472092 1.1737680400603365 0.6627762028505422
atom 21.0400000000000027 5.2599999999999998 5.2599999999999998 Ar
    velocity -0.7977937030110831 0.6134905075752751 0.4703217010088021
atom 26.2999999999999972 5.2599999999999998 5.2599999999999998 Ar
    velocity -1.0857460837793795 -1.0178754362376270 -0.0741176708404482
atom 31.5599999999999987 5.2599999999999998 5.2599999999999998 Ar
    velocity 0.5625544658252631 0.6472188396526845 0.2270935768066417
atom 36.8199999999999932 5.2599999999999998 5.2599999999999998 Ar
    velocity 0.6729314513633224 0.4322930636073237 1.6086483268263034
atom 42.0800000000000054 5.2599999999999998 5.2599999999999998 Ar
    velocity -0.4566083450499955 1.3765635737438822 0.4125962038303683
atom 47.3399999999999963 5.2599999999999998 5.2599999999999998 Ar
    velocity -0.4358139406989682 -0.4869754427632887 -0.3336924782385699
atom 52.5999999999999943 5.2599999999999998 5.2599999999999998 Ar
    velocity 1.2512775980121560 -0.5065952548057556 -0.7505516028812389
atom 57.8599999999999923 5.2599999999999998 5.2599999999999998 Ar
    velocity 0.4948376684033007 -1.2457132524707157 -0.3875856498307426
atom 0.0000000000000000 10.5199999999999996 5.2599999999999998 Ar
    velocity -0.1627357366322404 0.7105802929649637 -0.0858858410795651
atom 5.2600000000000007 10.5199999999999996 5.2599999999999998 Ar
    velocity -0.4861941752414018 1.2744241502762905 -0.0903327492491331
atom 10.5200000000000014 10.5199999999999996 5.2599999999999998 Ar
    velocity -0.5622917519221803 0.6382471625003737 0.0258420550693374
atom 15.7799999999999994 10.5199999999999996 5.2599999999999998 Ar
    velocity -0.6538419776083882 -0.0087539929848379 -0.2796165812745133
atom 21.0400000000000027 10.5199999999999996 5.2599999999999998 Ar
    velocity -0.8746280204890378 0.6241438672290895 1.6741839939080745
atom 26.2999999999999972 10.5199999999999996 5.2599999999999998 Ar
    velocity -0.8842906066734553 0.5315631162513027 0.4718172016159639
atom 31.5599999999999987 10.5199999999999996 5.2599999999999998 Ar
    velocity 0.2506058222366240 -0.1056114571375368 0.2743299026669180
atom 36.8199999999999932 10.5199999999999996 5.2599999999999998 Ar
    velocity 0.8745302928834078 0.6209828403918626 0.1620126652171561
atom 42.0800000000000054 10.5199999999999996 5.2599999999999998 Ar
    velocity 0.8524779937593651 1.8565287555180452 0.6170690167051215
atom 47.3399999999999963 10.5199999999999996 5.2599999999999998 Ar
    velocity 0.4532061028936543 -0.9630123654890037 -1.0766725683818805
atom 52.5999999999999943 10.5199999999999996 5.2599999999999998 Ar
    velocity 0.2001190643528985 1.0116332513255113 -0.7795953251009594
atom 57.8599999999999923 10.5199999999999996 5.2599999999999998 Ar
    velocity 0.8476418518548957 0.5523326575286760 0.3857181933031038
atom 0.0000000000000000 15.7799999999999976 5.2599999999999998 Ar
    velocity 0.3703991360503657 -1.5731523394757594 -1.3755323402192225
atom 5.2600000000000007 15.7799999999999976 5.2599999999999998 Ar
    velocity -1.1796350235427218 -0.0487743786389462 0.2902496141883677
atom 10.5200000000000014 15.7799999999999976 5.2599999999999998 Ar
    velocity 0.0603788415809649 1.0504650980013912 -0.3307667810162149
atom 15.7799999999999994 15.7799999999999976 5.2599999999999998 Ar
    velocity 0.4383958416423331 0.3169808595533554 -0.3672840184094511
atom 21.0400000000000027 15.7799999999999976 5.2599999999999998 Ar
    velocity 0.6732730397196698 0.0885394008089114 -0.7777370200852569
atom 26.2999999999999972 15.7799999999999976 5.2599999999999998 Ar
    velocity 0.7416609103813228 0.3579485239085731 1.1573512946170441
atom 31.5599999999999987 15.7799999999999976 5.2599999999999998 Ar
    velocity 0.5819959807309836 1.0189842471782633 0.2921502740885484
atom 36.8199999999999932 15.7799999999999976 5.2599999999999998 Ar
    velocity 0.0967362078285700 -1.4187308351441861 -0.4152322927232952
atom 42.0800000000000054 15.7799999999999976 5.2599999999999998 Ar
    velocity -0.5098609829704494 0.4441955051430843 0.1468613282579669
atom 47.3399999999999963 15.7799999999999976 5.2599999999999998 Ar
    velocity 0.1390114245125497 1.0503407091463091 1.9417835127964618
atom 52.5999999999999943 15.7799999999999976 5.2599999999999998 Ar
    velocity 0.3775779045123256 -0.2622632860003808 0.8305573701771807
atom 57.8599999999999923 15.7799999999999976 5.2599999999999998 Ar
    velocity -0.3810217042813573 0.9749499573835011 -0.2067614260110480
atom 0.0000000000000000 21.0399999999999991 5.2599999999999998 Ar
    velocity 0.4525609756886553 1.0159525598409864 -0.1796912105633601
atom 5.2600000000000007 21.0399999999999991 5.2599999999999998 Ar
    velocity -0.2683481414621782 -0.5653790653667780 -0.3292628269391620
atom 10.5200000000000014 21.0399999999999991 5.2599999999999998 Ar
    velocity 0.2340206653206277 -1.5172758132349675 -0.0683223085253960
atom 15.7799999999999994 21.0399999999999991 5.2599999999999998 Ar
    velocity 1.1713582495244597 0.9893537718743178 0.0015828806351708
atom 21.0400000000000027 21.0399999999999991 5.2599999999999998 Ar
    velocity 0.3630780875804167 -0.2670391729896670 -0.2792432997577530
atom 26.2999999999999972 21.0399999999999991 5.2599999999999998 Ar
    velocity 1.2238784760807944 -0.8276694143421982 -0.7149209687628297
atom 31.5599999999999987 21.0399999999999991 5.2599999999999998 Ar
    velocity 0.2573845898263871 1.1159307745689462 0.0934516012200767
atom 36.8199999999999932 21.0399999999999991 5.2599999999999998 Ar
    velocity 1.7269533551407961 -0.5339339502149655 0.1530122906638869
atom 42.0800000000000054 21.0399999999999991 5.2599999999999998 Ar
    velocity -1.3932706177789467 -0.7338528924137367 0.9415812902659190
atom 47.3399999999999963 21.0399999999999991 5.2599999999999998 Ar
    velocity 1.1231120423320597 0.6386919609898484 -1.3550820373368535