#=======================================================
# FHI-aims file: argon_4840_30k.in
# Created using the Atomic Simulation Environment (ASE)
# Tue Jun 15 19:24:51 2021
#=======================================================
lattice_vector 52.5999999999999943 0.0000000000000000 0.0000000000000000 
lattice_vector 0.0000000000000000 57.8599999999999994 0.0000000000000000 
lattice_vector 0.0000000000000000 0.0000000000000000 57.8599999999999994 
atom 0.0000000000000000 0.0000000000000000 0.0000000000000000 Ar
    velocity 0.5515990492494713 0.1811645727161409 -0.1937594636603143
atom 5.2599999999999998 0.0000000000000000 0.0000000000000000 Ar
    velocity 1.2779384274294081 -0.5426408465825434 -0.8850676349122550
atom 10.5199999999999996 0.0000000000000000 0.0000000000000000 Ar
    velocity 1.8149769035366448 -1.2967425892468463 0.3118997040039935
atom 15.7800000000000011 0.0000000000000000 0.0000000000000000 Ar
    velocity 0.9312034749757184 -0.2745450787692705 -0.4838594816125347
atom 21.0399999999999991 0.0000000000000000 0.0000000000000000 Ar
    velocity -0.6733084524810908 -1.2517309799938090 -0.1085705091767417
atom 26.2999999999999972 0.0000000000000000 0.0000000000000000 Ar
    velocity -0.5923105055009128 -0.2902810134698334 -1.5076966774855856
atom 31.5600000000000023 0.0000000000000000 0.0000000000000000 Ar
    velocity -0.6792078715962542 -1.3187224409498435 0.9089671825588063
atom 36.8200000000000003 0.0000000000000000 0.0000000000000000 Ar
    velocity -0.9978991297700986 -0.4327323352303454 -0.3240650644265087
atom 42.0799999999999983 0.0000000000000000 0.0000000000000000 Ar
    velocity -0.5985283359137969 -0.1751756438931567 0.1527125623283470
atom 47.3399999999999963 0.0000000000000000 0.0000000000000000 Ar
    velocity -0.3011663835515252 -0.5490526184262563 0.9169832278354058
atom 0.0000000000000000 5.2599999999999998 0.0000000000000000 Ar
    velocity 0.9837658571122937 -0.0682885749232163 -2.1279228389823421
atom 5.2599999999999998 5.2599999999999998 0.0000000000000000 Ar
    velocity -0.1455853312455963 0.8649597147984819 0.3306457583434368
atom 10.5199999999999996 5.2599999999999998 0.0000000000000000 Ar
    velocity 0.8508210271852972 -0.0676018359771313 0.4832991001089882
atom 15.7800000000000011 5.2599999999999998 0.0000000000000000 Ar
    velocity -0.4846782607767084 0.3653776945746606 0.8174636999733815
atom 21.0399999999999991 5.2599999999999998 0.0000000000000000 Ar
    velocity 0.2469362902904272 0.1093855323328777 0.8343189930141215
atom 26.2999999999999972 5.2599999999999998 0.0000000000000000 Ar
    velocity 0.0907366878041701 -0.1368946272413159 -0.1099942130054947
atom 31.5600000000000023 5.2599999999999998 0.0000000000000000 Ar
    velocity -1.6892893909833753 -0.5675825727966878 -1.6659411268198989
atom 36.8200000000000003 5.2599999999999998 0.0000000000000000 Ar
    velocity 0.3499139170960037 -0.5498744636544438 -1.9461879510670579
atom 42.0799999999999983 5.2599999999999998 0.0000000000000000 Ar
    velocity -0.1582841574180603 -2.0366113687218954 -1.3126127211636667
atom 47.3399999999999963 5.2599999999999998 0.0000000000000000 Ar
    velocity 0.8574432684483976 0.0631551419080957 0.4713353391260340
atom 0.0000000000000000 10.5199999999999996 0.0000000000000000 Ar
    velocity 0.1421291639877224 -0.9406642090898155 0.7236957006362802
atom 5.2599999999999998 10.5199999999999996 0.0000000000000000 Ar
    velocity 0.8586477007350142 1.8091726394342180 -0.0358303445349853
atom 10.5199999999999996 10.5199999999999996 0.0000000000000000 Ar
    velocity 0.3974122260448225 -0.8995569512029339 -0.4404308315686348
atom 15.7800000000000011 10.5199999999999996 0.0000000000000000 Ar
    velocity 0.5374984241321759 0.0245286890515892 0.3610944647834898
atom 21.0399999999999991 10.5199999999999996 0.0000000000000000 Ar
    velocity -1.4796619808346603 -1.4364973282366797 -0.0311520301249963
atom 26.2999999999999972 10.5199999999999996 0.0000000000000000 Ar
    velocity -0.0887505866860508 -0.1637734842978605 0.1356756381337620
atom 31.5600000000000023 10.5199999999999996 0.0000000000000000 Ar
    velocity 0.1527255862122443 0.8549746286237568 1.1409633237756449
atom 36.8200000000000003 10.5199999999999996 0.0000000000000000 Ar
    velocity -0.4129017434876781 -0.6449394292503856 -0.9003918777581271
atom 42.0799999999999983 10.5199999999999996 0.0000000000000000 Ar
    velocity -1.1709564664787935 -0.3055287709390388 -0.7308826249173305
atom 47.3399999999999963 10.5199999999999996 0.0000000000000000 Ar
    velocity -0.8727334546317347 -0.5320706703684692 -0.6750830846833702
atom 0.0000000000000000 15.7799999999999994 0.0000000000000000 Ar
    velocity 0.7350804108788394 0.6324642196510114 0.7538221483354011
atom 5.2599999999999998 15.7799999999999994 0.0000000000000000 Ar
    velocity 0.3874393683497008 0.4517257344793333 0.9516385634223981
atom 10.5199999999999996 15.7799999999999994 0.0000000000000000 Ar
    velocity 0.5329774020855493 2.4667273335021496 -0.8596085611062476
atom 15.7800000000000011 15.7799999999999994 0.0000000000000000 Ar
    velocity 1.1403771384181576 0.5817835832739671 1.2496318288425563
atom 21.0399999999999991 15.7799999999999994 0.0000000000000000 Ar
    velocity 1.3850559948513912 0.7025727146925350 1.1247171829991982
atom 26.2999999999999972 15.7799999999999994 0.0000000000000000 Ar
    velocity 0.1844293192158879 -1.0960700746846459 -2.4047119611137151
atom 31.5600000000000023 15.7799999999999994 0.0000000000000000 Ar
    velocity 0.1788612982634150 -0.1504604685949018 -0.0830012601869167
atom 36.8200000000000003 15.7799999999999994 0.0000000000000000 Ar
    velocity -0.4889084320350393 -0.7713655334106754 -0.1257801198804755
atom 42.0799999999999983 15.7799999999999994 0.0000000000000000 Ar
    velocity -0.7237567035870403 0.3994856714261416 -0.8113360383404639
atom 47.3399999999999963 15.7799999999999994 0.0000000000000000 Ar
    velocity -0.0814711131187610 1.3842328345431645 0.3906210577304136
atom 0.0000000000000000 21.0399999999999991 0.0000000000000000 Ar
    velocity -1.7515035207128518 0.0334733319963341 0.8684820653173622
atom 5.2599999999999998 21.0399999999999991 0.0000000000000000 Ar
    velocity 0.0889315640165942 -0.1983185181202787 0.0972275932410135
atom 10.5199999999999996 21.0399999999999991 0.0000000000000000 Ar
    velocity -0.0513920477130912 -0.5924304710823370 0.4284525944807339
atom 15.7800000000000011 21.0399999999999991 0.0000000000000000 Ar
    velocity -0.4429121476201033 0.3973876541422937 -0.4301280626714475
atom 21.0399999999999991 21.0399999999999991 0.0000000000000000 Ar
    velocity 0.0742335284878183 0.3502743552337823 -0.1256343758876267
atom 26.2999999999999972 21.0399999999999991 0.0000000000000000 Ar
    velocity -0.3790080772993772 1.0375569748609064 1.0512381811272227
atom 31.5600000000000023 21.0399999999999991 0.0000000000000000 Ar
    velocity 0.3100680545108026 0.6335570713913531 0.5422878878297491
atom 36.8200000000000003 21.0399999999999991 0.0000000000000000 Ar
    velocity -0.3641942338841631 -0.2769845723403795 0.5555709154917760
atom 42.0799999999999983 21.0399999999999991 0.0000000000000000 Ar
    velocity 0.6024360311977963 -0.4134021224295073 -0.9010425285688444
atom 47.3399999999999963 21.0399999999999991 0.0000000000000000 Ar
    velocity -0.0559887796240887 1.5174239474130256 -1.6648307434413547
atom 0.0000000000000000 26.3000000000000007 0.0000000000000000 Ar
    velocity 0.5150929985878276 -1.3997075553391465 -0.4234247053323337
atom 5.2599999999999998 26.3000000000000007 0.0000000000000000 Ar
    velocity -0.2828808202426675 0.6371178627207653 1.2002752046500638
atom 10.5199999999999996 26.3000000000000007 0.0000000000000000 Ar
    velocity -0.6391372842182066 0.0784512326088388 -1.0001390184263186
atom 15.7800000000000011 26.3000000000000007 0.0000000000000000 Ar
    velocity -0.6901914180823844 -0.1783321662837521 -0.1100018942336933
atom 21.0399999999999991 26.3000000000000007 0.0000000000000000 Ar
    velocity -0.5642082166244488 -1.2871158868895103 1.5788449524813586
atom 26.2999999999999972 26.3000000000000007 0.0000000000000000 Ar
    velocity -0.6895389709106745 -0.4196189264146930 0.0867978496666937
atom 31.5600000000000023 26.3000000000000007 0.0000000000000000 Ar
    velocity 0.0866549727724642 -1.0555378172521643 -0.5950594550080414
atom 36.8200000000000003 26.3000000000000007 0.0000000000000000 Ar
    velocity 0.6653172686376614 0.6644657812387883 0.3907549472840052
atom 42.0799999999999983 26.3000000000000007 0.0000000000000000 Ar
    velocity -1.2722510239462972 1.4834209011499913 0.2231568999060440
atom 47.3399999999999963 26.3000000000000007 0.0000000000000000 Ar
    velocity 0.3919234978495374 0.4032562345398635 0.6638818072074355
atom 0.0000000000000000 31.5599999999999987 0.0000000000000000 Ar
    velocity 0.0121718594131003 0.8017721455952852 -0.0251801086656002
atom 5.2599999999999998 31.5599999999999987 0.0000000000000000 Ar
    velocity 2.2879553134127981 -0.5884659459874082 -0.3073115895551707
atom 10.5199999999999996 31.5599999999999987 0.0000000000000000 Ar
    velocity 0.1160353411179867 0.3606194643795427 -0.5602585296047944
atom 15.7800000000000011 31.5599999999999987 0.0000000000000000 Ar
    velocity -1.4171877699909237 0.0152805544466470 -0.5944073202995569
atom 21.0399999999999991 31.5599999999999987 0.0000000000000000 Ar
    velocity -0.4634229321630903 -1.4644620440019742 -0.2624458118830015
atom 26.2999999999999972 31.5599999999999987 0.0000000000000000 Ar
    velocity -0.6192860019194012 1.0893833313638714 0.7199450588091414
atom 31.5600000000000023 31.5599999999999987 0.0000000000000000 Ar
    velocity 0.0594889803490310 1.1566416023991961 0.5763409834805933
atom 36.8200000000000003 31.5599999999999987 0.0000000000000000 Ar
    velocity 0.1032230000478167 -0.4565568481473082 1.2500062761738937
atom 42.0799999999999983 31.5599999999999987 0.0000000000000000 Ar
    velocity 2.3261057730652457 0.6785841534308447 1.3898770378480625
atom 47.3399999999999963 31.5599999999999987 0.0000000000000000 Ar
    velocity 0.1026225373420241 1.2659018811763743 0.1136918686638517
atom 0.0000000000000000 36.8200000000000003 0.0000000000000000 Ar
    velocity 0.6949134731357761 0.2672753562000271 0.7439564197303822
atom 5.2599999999999998 36.8200000000000003 0.0000000000000000 Ar
    velocity -1.3078513477891871 0.9981318988965123 -0.0853999358117246
atom 10.5199999999999996 36.8200000000000003 0.0000000000000000 Ar
    velocity -1.3279202314144465 0.8798999227633562 0.9873983344925993
atom 15.7800000000000011 36.8200000000000003 0.0000000000000000 Ar
    velocity -0.8137183279023072 -0.3298134325647726 0.8562611341271211
atom 21.0399999999999991 36.8200000000000003 0.0000000000000000 Ar
    velocity -0.7908921453130345 0.2988005432345039 0.2625985672410023
atom 26.2999999999999972 36.8200000000000003 0.0000000000000000 Ar
    velocity -0.8641910551266936 1.3003598071673859 0.1026727447565764
atom 31.5600000000000023 36.8200000000000003 0.0000000000000000 Ar
    velocity 0.1584125338959302 -0.3549075030705693 -0.6333319136535940
atom 36.8200000000000003 36.8200000000000003 0.0000000000000000 Ar
    velocity -1.9120776048402459 0.0887441363468498 -0.1614936447077315
atom 42.0799999999999983 36.8200000000000003 0.0000000000000000 Ar
    velocity 0.4482343570892773 0.4296700140439286 -0.4828683391102828
atom 47.3399999999999963 36.8200000000000003 0.0000000000000000 Ar
    velocity -1.1422474713111337 -0.7040226697797118 -0.2926334368271308
atom 0.0000000000000000 42.0799999999999983 0.0000000000000000 Ar
    velocity -0.9307519775608926 0.8439783368490880 1.2197492386204716
atom 5.2599999999999998 42.0799999999999983 0.0000000000000000 Ar
    velocity 0.1276181276385791 0.7048892133988466 0.2345125106185470
atom 10.5199999999999996 42.0799999999999983 0.0000000000000000 Ar
    velocity -0.9020862964484196 -0.2021730363268025 1.3316110675504711
atom 15.7800000000000011 42.0799999999999983 0.0000000000000000 Ar
    velocity 0.0098075784279477 0.9135208878105874 -0.6375814793222644
atom 21.0399999999999991 42.0799999999999983 0.0000000000000000 Ar
    velocity 0.3282344338722871 -1.5813372276242599 -0.2335998589592534
atom 26.2999999999999972 42.0799999999999983 0.0000000000000000 Ar
    velocity 0.1756063554914803 -0.6821940385524555 -1.6728800814798319
atom 31.5600000000000023 42.0799999999999983 0.0000000000000000 Ar
    velocity 1.1449122594707202 -0.4799560781006764 -0.4850866356091072
atom 36.8200000000000003 42.0799999999999983 0.0000000000000000 Ar
    velocity -0.2722626581997094 1.4306457794017318 -0.0197054757520081
atom 42.0799999999999983 42.0799999999999983 0.0000000000000000 Ar
    velocity -0.0137701022299295 0.8835037381544332 0.2590318941986287
atom 47.3399999999999963 42.0799999999999983 0.0000000000000000 Ar
    velocity -0.8563442367712844 -2.1968559584845000 -0.0384717479664157
atom 0.0000000000000000 47.3400000000000034 0.0000000000000000 Ar
    velocity 1.5718725071632160 -1.0653336563815499 -1.0339401172897764
atom 5.2599999999999998 47.3400000000000034 0.0000000000000000 Ar
    velocity 0.9430586225524232 0.6142729642967067 -1.3155045068113069
atom 10.5199999999999996 47.3400000000000034 0.0000000000000000 Ar
    velocity 0.5243336093008811 -0.4244185099456534 -0.0561145929638213
atom 15.7800000000000011 47.3400000000000034 0.0000000000000000 Ar
    velocity 0.7414492460284124 -0.4997436184062083 0.5201920255763824
atom 21.0399999999999991 47.3400000000000034 0.0000000000000000 Ar
    velocity -1.0223302708714368 -0.3318041594111192 0.1389745732210711
atom 26.2999999999999972 47.3400000000000034 0.0000000000000000 Ar
    velocity 1.0343836698193856 0.2301256458913906 0.7506856866681040
atom 31.5600000000000023 47.3400000000000034 0.0000000000000000 Ar
    velocity -0.3306063340012659 0.8520366154465840 -1.1567263458885018
atom 36.8200000000000003 47.3400000000000034 0.0000000000000000 Ar
    velocity 0.2963623468760859 0.1182941231249766 -0.5490866963774212
atom 42.0799999999999983 47.3400000000000034 0.0000000000000000 Ar
    velocity -0.6896164335812648 -2.0439486569027654 0.7142247247219256
atom 47.3399999999999963 47.3400000000000034 0.0000000000000000 Ar
    velocity -0.0456565050128408 -0.8215697115096581 0.4043559807578814
atom 0.0000000000000000 52.6000000000000014 0.0000000000000000 Ar
    velocity 0.2209346391678702 1.5225049797577641 0.6545680118349281
atom 5.2599999999999998 52.6000000000000014 0.0000000000000000 Ar
    velocity 1.0606423087822847 -0.2500785882785170 0.1033815080131619
atom 10.5199999999999996 52.6000000000000014 0.0000000000000000 Ar
    velocity -1.0180126760612023 0.0116132156784013 -0.5307546216373852
atom 15.7800000000000011 52.6000000000000014 0.0000000000000000 Ar
    velocity -0.0579814176301926 0.4197991750517122 -0.0123753222635464
atom 21.0399999999999991 52.6000000000000014 0.0000000000000000 Ar
    velocity -0.0999273218520464 -1.6182635369665748 1.4900156895677827
atom 26.2999999999999972 52.6000000000000014 0.0000000000000000 Ar
    velocity 0.6820848589250713 0.8683779134810377 1.0495910253122678
atom 31.5600000000000023 52.6000000000000014 0.0000000000000000 Ar
    velocity 0.1478944216943744 0.1280353046279262 -1.1037322880064910
atom 36.8200000000000003 52.6000000000000014 0.0000000000000000 Ar
    velocity 0.0693718121367285 1.2413995386609198 -0.0394266525243863
atom 42.0799999999999983 52.6000000000000014 0.0000000000000000 Ar
    velocity 0.0113958830337699 -1.1767283823395080 -0.3579848055130035
atom 47.3399999999999963 52.6000000000000014 0.0000000000000000 Ar
    velocity -0.3906978769033006 0.4852228822730619 -0.1818802258050697
atom 0.0000000000000000 0.0000000000000000 5.2599999999999998 Ar
    velocity -1.4466423461295166 0.6297661492278386 -0.8207961932161715
atom 5.2599999999999998 0.0000000000000000 5.2599999999999998 Ar
    velocity 0.0208421070650456 -0.6750242517359745 -0.0121923742425738
atom 10.5199999999999996 0.0000000000000000 5.2599999999999998 Ar
    velocity 1.1143627971681220 -0.8516560607157920 -0.4977574142153982
atom 15.7800000000000011 0.0000000000000000 5.2599999999999998 Ar
    velocity -1.6234544918392828 -0.3664870225057046 0.0025778499385296
atom 21.0399999999999991 0.0000000000000000 5.2599999999999998 Ar
    velocity 0.7939220610715820 -1.6600302030890430 -0.4605451376597553
atom 26.2999999999999972 0.0000000000000000 5.2599999999999998 Ar
    velocity -0.3732367968585051 -1.3675034836401974 -1.1050348813685724
atom 31.5600000000000023 0.0000000000000000 5.2599999999999998 Ar
    velocity 0.1221857135550887 0.8540413199709644 -1.3292748684231392
atom 36.8200000000000003 0.0000000000000000 5.2599999999999998 Ar
    velocity 0.5779930160057959 1.5776678731995410 0.2405256364286416
atom 42.0799999999999983 0.0000000000000000 5.2599999999999998 Ar
    velocity 0.0711157671525208 -1.3988936925024069 0.5647047929311496
atom 47.3399999999999963 0.0000000000000000 5.2599999999999998 Ar
    velocity -0.6283864180056732 -0.5831158717506771 -1.5954950188628729
atom 0.0000000000000000 5.2599999999999998 5.2599999999999998 Ar
    velocity -0.2355243187076398 -1.0982936329458364 -0.4680519025521512
atom 5.2599999999999998 5.2599999999999998 5.2599999999999998 Ar
    velocity 0.9267240896872468 -1.1290001164286088 -1.0850585550627452
atom 10.5199999999999996 5.2599999999999998 5.2599999999999998 Ar
    velocity 0.2007528496710735 0.9615751339575926 -0.0120528404930548
atom 15.7800000000000011 5.2599999999999998 5.2599999999999998 Ar
    velocity -0.6087434853272728 -0.0202463324346009 0.1101254559954991
atom 21.0399999999999991 5.2599999999999998 5.2599999999999998 Ar
    velocity 0.6389126990939644 0.7112641292990198 0.1768631319019550
atom 26.2999999999999972 5.2599999999999998 5.2599999999999998 Ar
    velocity 0.1999405871235412 -0.1136829161368052 -0.7363050690936912
atom 31.5600000000000023 5.2599999999999998 5.2599999999999998 Ar
    velocity 1.1828275960203971 -1.4245290608778522 -0.3350687864293770
atom 36.8200000000000003 5.2599999999999998 5.2599999999999998 Ar
    velocity 0.7437780994170853 -0.1907986641195822 0.8669826258665766
atom 42.0799999999999983 5.2599999999999998 5.2599999999999998 Ar
    velocity 0.6875803222693964 -0.0859058085717232 0.5366447027746558
atom 47.3399999999999963 5.2599999999999998 5.2599999999999998 Ar
    velocity 0.0333977261442877 -0.3449435138456545 0.1738787555475971
atom 0.0000000000000000 10.5199999999999996 5.2599999999999998 Ar
    velocity -1.4011290540070249 -0.7983544802248707 -0.4012847742691515
atom 5.2599999999999998 10.5199999999999996 5.2599999999999998 Ar
    velocity 0.4437448459749453 -0.7829029509673466 -0.4908126934752118
atom 10.5199999999999996 10.5199999999999996 5.2599999999999998 Ar
    velocity 0.1571922408308653 0.6693236419666552 -0.1986762794088913
atom 15.7800000000000011 10.5199999999999996 5.2599999999999998 Ar
    velocity -0.1591377285135800 -0.0289464477014505 -2.1051716429464400
atom 21.0399999999999991 10.5199999999999996 5.2599999999999998 Ar
    velocity 0.2861801312841946 -0.1861269015017157 -0.3362039826632679
atom 26.2999999999999972 10.5199999999999996 5.2599999999999998 Ar
    velocity 0.4714087225555964 0.9018852032106804 -0.6779242976088831
atom 31.5600000000000023 10.5199999999999996 5.2599999999999998 Ar
    velocity -0.5030620077009663 -0.8445391677111574 0.6904143330233236
atom 36.8200000000000003 10.5199999999999996 5.2599999999999998 Ar
    velocity 0.1032027252486638 -1.1531423261254581 -1.2862355334318578
atom 42.0799999999999983 10.5199999999999996 5.2599999999999998 Ar
    velocity -0.8364339699907519 1.1496704390871302 -0.1575667930248044
atom 47.3399999999999963 10.5199999999999996 5.2599999999999998 Ar
    velocity 0.1174383384802102 -0.8560119284221944 -0.5533316921190068
atom 0.0000000000000000 15.7799999999999994 5.2599999999999998 Ar
    velocity -0.3852247177030554 1.4552508121492846 -0.2577856876786350
atom 5.2599999999999998 15.7799999999999994 5.2599999999999998 Ar
    velocity 0.2290003663510005 -1.5746725866400484 -2.1056609051875328
atom 10.5199999999999996 15.7799999999999994 5.2599999999999998 Ar
    velocity -0.1133046891790355 0.0139518841626169 0.1726959868643434
atom 15.7800000000000011 15.7799999999999994 5.2599999999999998 Ar
    velocity 0.4629430487559689 -1.7156508601547336 1.0869505038274065
atom 21.0399999999999991 15.7799999999999994 5.2599999999999998 Ar
    velocity -0.2799178259081402 0.2105438609036077 -1.1071450488047196
atom 26.2999999999999972 15.7799999999999994 5.2599999999999998 Ar
    velocity 1.4470989015033233 -0.3653591449528686 0.2414901988149212
atom 31.5600000000000023 15.7799999999999994 5.2599999999999998 Ar
    velocity -1.0985630145631806 0.5438980858477429 0.5202269083742830
atom 36.8200000000000003 15.7799999999999994 5.2599999999999998 Ar
    velocity 0.7506695567126146 0.4226100484869898 0.4551227755052033
atom 42.0799999999999983 15.7799999999999994 5.2599999999999998 Ar
    velocity -1.2501437441974177 -0.2272255766374447 0.0833814688059620
atom 47.3399999999999963 15.7799999999999994 5.2599999999999998 Ar
    velocity -1.6648667424820023 0.1200784639221360 -1.4112598372840299
atom 0.0000000000000000 21.0399999999999991 5.2599999999999998 Ar
    velocity -0.3104862532462595 0.4068004902833028 2.0147242322129668
atom 5.2599999999999998 21.0399999999999991 5.2599999999999998 Ar
    velocity 0.4212212488601909 0.6471588446863378 -0.5555615749054128
atom 10.5199999999999996 21.0399999999999991 5.2599999999999998 Ar
    velocity -0.6488272482519030 0.8587918067383478 -1.8688487287283460
atom 15.7800000000000011 21.0399999999999991 5.2599999999999998 Ar
    velocity 1.5292771787636099 0.5400655496653521 -0.4843977251678737
atom 21.0399999999999991 21.0399999999999991 5.2599999999999998 Ar
    velocity 0.1571813209884415 0.0642693116279171 0.4270726345721534
atom 26.2999999999999972 21.0399999999999991 5.2599999999999998 Ar
    velocity -0.1088002119133381 -0.0372681547903664 -0.3556245443382817
atom 31.5600000000000023 21.0399999999999991 5.2599999999999998 Ar
    velocity 0.3376446933527028 0.4921178870427067 -1.6414107709032679
atom 36.8200000000000003 21.0399999999999991 5.2599999999999998 Ar
    velocity 0.2015383747384410 0.0284790475593197 -0.0822925838017710
atom 42.0799999999999983 21.0399999999999991 5.2599999999999998 Ar
    velocity -1.3169961945949311 -0.3152039754305047 -0.5749457204880284
atom 47.3399999999999963 21.0399999999999991 5.2599999999999998 Ar
    velocity 0.3691714367540355 -0.2049793658729638 -0.0871851671423554
atom 0.0000000000000000 26.3000000000000007 5.2599999999999998 Ar
    velocity -0.7485558358568852 -1.4027412829628685 -0.9882766600367927
atom 5.2599999999999998 26.3000000000000007 5.2599999999999998 Ar
    velocity -2.4336498572933376 0.1556542079717259 -0.1973079349334411
atom 10.5199999999999996 26.3000000000000007 5.2599999999999998 Ar
    velocity 0.0807574220149907 0.3597860896227963 1.1196644624276564
atom 15.7800000000000011 26.3000000000000007 5.2599999999999998 Ar
    velocity -0.8525307818972877 1.1207043275027349 0.5841928041774292
atom 21.0399999999999991 26.3000000000000007 5.2599999999999998 Ar
    velocity -1.3956750955560799 -0.2981686587794962 0.4856484454940930
atom 26.2999999999999972 26.3000000000000007 5.2599999999999998 Ar
    velocity 0.0429198998713645 0.5207623094355263 -0.6070958854712212
atom 31.5600000000000023 26.3000000000000007 5.2599999999999998 Ar
    velocity 0.6702515594179945 0.0727989362687157 -1.7280873318156293
atom 36.8200000000000003 26.3000000000000007 5.2599999999999998 Ar
    velocity -0.7529379668021851 0.0534218703976937 -0.5866076175224318
atom 42.0799999999999983 26.3000000000000007 5.2599999999999998 Ar
    velocity 0.4690686293559274 -0.4678356193767969 0.3321568829511588
atom 47.3399999999999963 26.3000000000000007 5.2599999999999998 Ar
    velocity 0.1393777663792274 0.0356225026234586 -1.3426917818832369
atom 0.0000000000000000 31.5599999999999987 5.2599999999999998 Ar
    velocity 0.0307225002449548 -0.9321317950075322 0.4452353974813066
atom 5.2599999999999998 31.5599999999999987 5.2599999999999998 Ar
    velocity -0.1626977628228441 0.4036789226543580 0.9646466170528250
atom 10.5199999999999996 31.5599999999999987 5.2599999999999998 Ar
    velocity 0.7035726223676431 1.5807904113143598 -0.5659098043396996
atom 15.7800000000000011 31.5599999999999987 5.2599999999999998 Ar
    velocity -0.9422057165891907 -0.0159007707994557 1.1084798366143118
atom 21.0399999999999991 31.5599999999999987 5.2599999999999998 Ar
    velocity 0.2921490767444719 -1.8984036505516901 0.6658262047305779
atom 26.2999999999999972 31.5599999999999987 5.2599999999999998 Ar
    velocity 1.2610695570440529 -0.2208232523582966 0.0616224144108290
atom 31.5600000000000023 31.5599999999999987 5.2599999999999998 Ar
    velocity 0.3713702997546315 0.9282130852893012 -0.8348700782363673
atom 36.8200000000000003 31.5599999999999987 5.2599999999999998 Ar
    velocity -0.3733892572308952 0.6105151991624459 -1.1649128897062528
atom 42.0799999999999983 31.5599999999999987 5.2599999999999998 Ar
    velocity 0.3333728071784184 -0.1659958108023480 -0.5843816923935813
atom 47.3399999999999963 31.5599999999999987 5.2599999999999998 Ar
    velocity 1.3884824379279284 -1.1256139126236744 -0.0984881535160747
atom 0.0000000000000000 36.8200000000000003 5.2599999999999998 Ar
    velocity 0.3350416002345292 -0.5016477286926292 0.2976914667752512
atom 5.2599999999999998 36.8200000000000003 5.2599999999999998 Ar
    velocity 0.8838881532987134 0.5941962375199342 0.1999300814543432
atom 10.5199999999999996 36.8200000000000003 5.2599999999999998 Ar
    velocity -0.4749027306962365 -0.5557146585810762 -0.6358953906852395
atom 15.7800000000000011 36.8200000000000003 5.2599999999999998 Ar
    velocity -0.8192706337887408 -0.1618485721616866 1.1588652812007867
atom 21.0399999999999991 36.8200000000000003 5.2599999999999998 Ar
    velocity 1.2147864184529500 1.3272162022567500 -1.2920049142075340
atom 26.2999999999999972 36.8200000000000003 5.2599999999999998 Ar
    velocity -0.1263274078755545 -0.3684880701372529 -1.3227953812789017
atom 31.5600000000000023 36.8200000000000003 5.2599999999999998 Ar
    velocity -0.5047782422202052 -0.8513703905769128 1.6671084254058146
atom 36.8200000000000003 36.8200000000000003 5.2599999999999998 Ar
    velocity -0.7436638465185152 -0.9952078955378695 -0.6573308167839287
atom 42.0799999999999983 36.8200000000000003 5.2599999999999998 Ar
    velocity 0.4830722055532470 -0.2221778378240407 0.9521306454181633
atom 47.3399999999999963 36.8200000000000003 5.2599999999999998 Ar
    velocity 0.0663491326388887 -0.9277957665292370 -0.5909616943152537
atom 0.0000000000000000 42.0799999999999983 5.2599999999999998 Ar
    velocity -0.3411521904064986 -0.7501597727245003 -0.1000821352978023
atom 5.2599999999999998 42.0799999999999983 5.2599999999999998 Ar
    velocity 0.1731975178327844 -0.6936526654994355 0.5025566827870102
atom 10.5199999999999996 42.0799999999999983 5.2599999999999998 Ar
    velocity -0.3329906359378685 0.8789080903081048 -0.2032779777455998
atom 15.7800000000000011 42.0799999999999983 5.2599999999999998 Ar
    velocity -0.6615140063609473 1.5545916876402228 0.9665023982866783
atom 21.0399999999999991 42.0799999999999983 5.2599999999999998 Ar
    velocity -0.5184192176386853 0.1327861033344455 -0.9161248480933284
atom 26.2999999999999972 42.0799999999999983 5.2599999999999998 Ar
    velocity 0.2778969877438762 -1.0705697050116612 0.4679119937534349
atom 31.5600000000000023 42.0799999999999983 5.2599999999999998 Ar
    velocity 0.4564593967287618 -0.9131780877242072 0.5594035854593934
atom 36.8200000000000003 42.0799999999999983 5.2599999999999998 Ar
    velocity 0.2138209845610295 1.1787871517621722 -0.7546604972183577
atom 42.0799999999999983 42.0799999999999983 5.2599999999999998 Ar
    velocity 0.1411877230320670 -1.0173387665433988 1.5286548098011339
atom 47.3399999999999963 42.0799999999999983 5.2599999999999998 Ar
    velocity -0.7327655879944863 0.3597064008050508 -0.6808847279251619
atom 0.0000000000000000 47.3400000000000034 5.2599999999999998 Ar
    velocity -0.8461108764546276 -0.9330045398370397 -0.6793354557786454
atom 5.2599999999999998 47.3400000000000034 5.2599999999999998 Ar
    velocity 0.9355525014242136 1.0740060052911131 0.2421463918597160
atom 10.5199999999999996 47.3400000000000034 5.2599999999999998 Ar
    velocity -0.2125088410811264 -1.1814184883115870 -1.2996387689070237
atom 15.7800000000000011 47.3400000000000034 5.2599999999999998 Ar
    velocity -0.4924947089525806 -0.2321231524251111 0.3277617079072545
atom 21.0399999999999991 47.3400000000000034 5.2599999999999998 Ar
    velocity 0.7120974296685764 -0.4494418341178041 -0.2543014988713674
atom 26.2999999999999972 47.3400000000000034 5.2599999999999998 Ar
    velocity -0.6860581798169355 0.3016705250896301 -0.0471416804288718
atom 31.5600000000000023 47.3400000000000034 5.2599999999999998 Ar
    velocity 0.6496382578910327 -1.5224832661703744 0.3161368607730733
atom 36.8200000000000003 47.3400000000000034 5.2599999999999998 Ar
    velocity -1.3733913801501958 -0.6789126354772925 -0.2641008272625267
atom 42.0799999999999983 47.3400000000000034 5.2599999999999998 Ar
    velocity -1.2932484878415669 -0.0094187653905072 -0.3489563098511049
atom 47.3399999999999963 47.3400000000000034 5.2599999999999998 Ar
    velocity 0.6020512988220530 -0.1747509737958181 -0.2213595918788532
atom 0.0000000000000000 52.6000000000000014 5.2599999999999998 Ar
    velocity 0.7023334828846959 -1.3903030466615423 0.5970308277537716
atom 5.2599999999999998 52.6000000000000014 5.2599999999999998 Ar
    velocity -0.0663792484206576 -1.4783001095473409 -0.6687101352154546
atom 10.5199999999999996 52.6000000000000014 5.2599999999999998 Ar
    velocity 1.0837861876287334 -0.6201066455258440 -0.2648653341482086
atom 15.7800000000000011 52.6000000000000014 5.2599999999999998 Ar