#=======================================================
# FHI-aims file: argon_5324_30k.in
# Created using the Atomic Simulation Environment (ASE)
# Tue Jun 15 19:24:52 2021
#=======================================================
lattice_vector 57.8599999999999994 0.0000000000000000 0.0000000000000000 
lattice_vector 0.0000000000000000 57.8599999999999994 0.0000000000000000 
lattice_vector 0.0000000000000000 0.0000000000000000 57.8599999999999994 
atom 0.0000000000000000 0.0000000000000000 0.0000000000000000 Ar
    velocity 0.2173675526870520 -0.8249069178214008 -0.2060063805704181
atom 5.2599999999999998 0.0000000000000000 0.0000000000000000 Ar
    velocity -0.8742951337596500 0.9570650238807049 -0.8778672838217796
atom 10.5199999999999996 0.0000000000000000 0.0000000000000000 Ar
    velocity 1.3317513132988030 1.9730590508310260 -1.4350162814969074
atom 15.7799999999999994 0.0000000000000000 0.0000000000000000 Ar
    velocity 0.7467785899352003 -0.5795378292657160 -1.0775136459608314
atom 21.0399999999999991 0.0000000000000000 0.0000000000000000 Ar
    velocity -1.5805282395375952 -2.1201526551632264 -0.0680538640874723
atom 26.3000000000000007 0.0000000000000000 0.0000000000000000 Ar
    velocity 0.6720676025125668 0.1247328144942232 -0.5205253726174796
atom 31.5599999999999987 0.0000000000000000 0.0000000000000000 Ar
    velocity -0.4333318994097782 0.1640150965440141 0.5515137367190476
atom 36.8200000000000003 0.0000000000000000 0.0000000000000000 Ar
    velocity -1.0907819784031936 0.7272568416190341 -0.7861248273226755
atom 42.0799999999999983 0.0000000000000000 0.0000000000000000 Ar
    velocity -0.4331723270555055 -1.0495924316798606 -0.9229470845636937
atom 47.3400000000000034 0.0000000000000000 0.0000000000000000 Ar
    velocity 0.5186501380886702 1.7696962018613038 -0.5213385254150630
atom 52.6000000000000014 0.0000000000000000 0.0000000000000000 Ar
    velocity -0.2556089238796562 1.3021513653603147 -0.1024766574296025
atom 0.0000000000000000 5.2599999999999998 0.0000000000000000 Ar
    velocity -0.1716905443006927 -0.7455795993230065 -0.7735232393916408
atom 5.2599999999999998 5.2599999999999998 0.0000000000000000 Ar
    velocity -1.2429030678451558 -0.4603874647001849 -0.0763155113471943
atom 10.5199999999999996 5.2599999999999998 0.0000000000000000 Ar
    velocity -2.2561202575044610 -0.0861539137869311 1.3162706703172489
atom 15.7799999999999994 5.2599999999999998 0.0000000000000000 Ar
    velocity -0.2942496275790280 0.0925117284537253 -0.5194829976254368
atom 21.0399999999999991 5.2599999999999998 0.0000000000000000 Ar
    velocity 0.4889002064354949 0.7562455913099159 -1.7564530022974723
atom 26.3000000000000007 5.2599999999999998 0.0000000000000000 Ar
    velocity -1.1281637504931015 0.8117517793392052 0.1802374076288282
atom 31.5599999999999987 5.2599999999999998 0.0000000000000000 Ar
    velocity -0.9484421571351193 -0.3675309039852045 -0.5282695926908633
atom 36.8200000000000003 5.2599999999999998 0.0000000000000000 Ar
    velocity 0.5232952885998842 -0.2361376578217919 -0.8969862784886968
atom 42.0799999999999983 5.2599999999999998 0.0000000000000000 Ar
    velocity -0.2567653918236327 0.2702670890572236 -0.6713858048913697
atom 47.3400000000000034 5.2599999999999998 0.0000000000000000 Ar
    velocity -0.7185181529919421 -1.0253761805906645 -0.7736198013466250
atom 52.6000000000000014 5.2599999999999998 0.0000000000000000 Ar
    velocity -2.0224620895487329 -0.5189017691624883 0.4789461681744154
atom 0.0000000000000000 10.5199999999999996 0.0000000000000000 Ar
    velocity 0.5753924005565562 -0.0314925616655522 -2.1976101314662109
atom 5.2599999999999998 10.5199999999999996 0.0000000000000000 Ar
    velocity 0.8619072240636657 -1.5216758854069941 0.0349162938430996
atom 10.5199999999999996 10.5199999999999996 0.0000000000000000 Ar
    velocity -0.1043213091151917 -0.2561509158007515 -0.0071186569329115
atom 15.7799999999999994 10.5199999999999996 0.0000000000000000 Ar
    velocity 0.3825731577636394 0.2695223146307392 -0.1568631014368334
atom 21.0399999999999991 10.5199999999999996 0.0000000000000000 Ar
    velocity -0.5329515137025965 -0.1859801214302903 0.5334235411060371
atom 26.3000000000000007 10.5199999999999996 0.0000000000000000 Ar
    velocity -0.7803702984182380 -0.6441291996860979 -0.8557373436947179
atom 31.5599999999999987 10.5199999999999996 0.0000000000000000 Ar
    velocity -0.2532768528832118 1.8360756631537691 -0.2654131148378227
atom 36.8200000000000003 10.5199999999999996 0.0000000000000000 Ar
    velocity -1.4124889148076121 0.3077525763314384 0.9579450391695382
atom 42.0799999999999983 10.5199999999999996 0.0000000000000000 Ar
    velocity -0.0942080754120918 0.5942922692327034 -0.2790034614234323
atom 47.3400000000000034 10.5199999999999996 0.0000000000000000 Ar
    velocity 1.5457795955842750 0.7963374961813809 -0.0400583417902489
atom 52.6000000000000014 10.5199999999999996 0.0000000000000000 Ar
    velocity 0.7422099300651339 0.4892492990853751 -0.0476539879833997
atom 0.0000000000000000 15.7799999999999994 0.0000000000000000 Ar
    velocity 1.5436283484754274 -0.8409067378029486 -0.7813801895770238
atom 5.2599999999999998 15.7799999999999994 0.0000000000000000 Ar
    velocity -2.1752544757201129 0.3909141056314004 -0.8617287611530571
atom 10.5199999999999996 15.7799999999999994 0.0000000000000000 Ar
    velocity 0.2188338896494879 0.2700366934316581 0.1165954617770320
atom 15.7799999999999994 15.7799999999999994 0.0000000000000000 Ar
    velocity 1.0332992616996186 1.1986848312462155 1.0965032213525128
atom 21.0399999999999991 15.7799999999999994 0.0000000000000000 Ar
    velocity 0.8774084547929608 0.3672263187017434 -0.3868157097314192
atom 26.3000000000000007 15.7799999999999994 0.0000000000000000 Ar
    velocity -0.2013475727283710 -0.1284718938257449 0.4110723956515152
atom 31.5599999999999987 15.7799999999999994 0.0000000000000000 Ar
    velocity 1.7815710622209173 -1.1020618094696801 -0.0177514636075051
atom 36.8200000000000003 15.7799999999999994 0.0000000000000000 Ar
    velocity 1.1689876601955274 0.8960846608504250 0.0731761646256784
atom 42.0799999999999983 15.7799999999999994 0.0000000000000000 Ar
    velocity -0.0475490992007128 -1.1386070571423139 0.8714698166379976
atom 47.3400000000000034 15.7799999999999994 0.0000000000000000 Ar
    velocity 0.7059269428968313 -1.2818301433284300 -0.4328532166257122
atom 52.6000000000000014 15.7799999999999994 0.0000000000000000 Ar
    velocity 0.3585661009758170 -0.6245107204230698 0.9022135410155131
atom 0.0000000000000000 21.0399999999999991 0.0000000000000000 Ar
    velocity 0.6934974736903646 1.4721733608441350 0.4334617734947847
atom 5.2599999999999998 21.0399999999999991 0.0000000000000000 Ar
    velocity -0.8944590711924476 -0.7104917286777157 -1.4113524720692410
atom 10.5199999999999996 21.0399999999999991 0.0000000000000000 Ar
    velocity 0.9314709674213857 0.4864246369240792 -0.5046702921638990
atom 15.7799999999999994 21.0399999999999991 0.0000000000000000 Ar
    velocity -0.0061946012131905 0.3245145755172539 0.7701543930466673
atom 21.0399999999999991 21.0399999999999991 0.0000000000000000 Ar
    velocity 0.0708661927084093 -0.4410973526469646 0.8385135948091198
atom 26.3000000000000007 21.0399999999999991 0.0000000000000000 Ar
    velocity 0.0592873257761038 0.0251365648499240 -0.0340000847622658
atom 31.5599999999999987 21.0399999999999991 0.0000000000000000 Ar
    velocity 0.3813141088938148 -0.1848328029743949 -0.5407746383733758
atom 36.8200000000000003 21.0399999999999991 0.0000000000000000 Ar
    velocity -0.7987870783540949 0.9294708503588167 0.0359115975825618
atom 42.0799999999999983 21.0399999999999991 0.0000000000000000 Ar
    velocity 0.1881196848398778 1.4323401017798265 0.6043621015560932
atom 47.3400000000000034 21.0399999999999991 0.0000000000000000 Ar
    velocity -1.3624618055782880 1.2253834810862321 -0.2416310462627422
atom 52.6000000000000014 21.0399999999999991 0.0000000000000000 Ar
    velocity -0.5740335502970085 -0.2233488623615647 0.9009923742796314
atom 0.0000000000000000 26.3000000000000007 0.0000000000000000 Ar
    velocity -0.8991957976937851 -0.4507330587424617 -0.0409168096921258
atom 5.2599999999999998 26.3000000000000007 0.0000000000000000 Ar
    velocity 0.0150312289046443 -0.0640069047474683 0.5940153824157576
atom 10.5199999999999996 26.3000000000000007 0.0000000000000000 Ar
    velocity 2.1392476368532480 0.5796064348339597 -0.0556862296831796
atom 15.7799999999999994 26.3000000000000007 0.0000000000000000 Ar
    velocity 0.9648292790887506 0.5875657331385464 1.3314464004861064
atom 21.0399999999999991 26.3000000000000007 0.0000000000000000 Ar
    velocity -0.2382170181695911 -1.1104519344347026 -0.5362330303709513
atom 26.3000000000000007 26.3000000000000007 0.0000000000000000 Ar
    velocity -0.5351295443836549 0.4083710473608266 -0.1275573964535879
atom 31.5599999999999987 26.3000000000000007 0.0000000000000000 Ar
    velocity -0.9723938799380694 -0.6514418503363262 0.9210728173085424
atom 36.8200000000000003 26.3000000000000007 0.0000000000000000 Ar
    velocity -0.2606568990435912 0.8269335651159938 -1.4037021770165694
atom 42.0799999999999983 26.3000000000000007 0.0000000000000000 Ar
    velocity 0.6259198565605779 -1.0901714624948666 1.2785838412659227
atom 47.3400000000000034 26.3000000000000007 0.0000000000000000 Ar
    velocity -0.6827493093958068 0.8408431044943216 1.0069587556946011
atom 52.6000000000000014 26.3000000000000007 0.0000000000000000 Ar
    velocity -0.3487521051165285 1.1803884513765019 -0.4725351807682948
atom 0.0000000000000000 31.5599999999999987 0.0000000000000000 Ar
    velocity -0.9385958923760263 0.1604067283316049 2.0093156205093337
atom 5.2599999999999998 31.5599999999999987 0.0000000000000000 Ar
    velocity -0.0167228831477024 -0.5599883203088961 0.6393939225605711
atom 10.5199999999999996 31.5599999999999987 0.0000000000000000 Ar
    velocity 0.2201676748706371 -0.3317143718278940 1.2027343982828753
atom 15.7799999999999994 31.5599999999999987 0.0000000000000000 Ar
    velocity 0.3181423962324769 -0.0902535031936383 -0.1396383766617715
atom 21.0399999999999991 31.5599999999999987 0.0000000000000000 Ar
    velocity 0.3526631742340630 1.9020018642535024 -1.0101413924103719
atom 26.3000000000000007 31.5599999999999987 0.0000000000000000 Ar
    velocity 2.0815629599546956 -0.4641545807351898 -0.4331201239555966
atom 31.5599999999999987 31.5599999999999987 0.0000000000000000 Ar
    velocity 0.2100900171409036 -0.1231374177168122 -0.7621730707743463
atom 36.8200000000000003 31.5599999999999987 0.0000000000000000 Ar
    velocity 0.2284411416101284 1.1283496505979964 0.2133590578730600
atom 42.0799999999999983 31.5599999999999987 0.0000000000000000 Ar
    velocity -1.0557646306158692 0.2314118818325338 -1.0859793908760906
atom 47.3400000000000034 31.5599999999999987 0.0000000000000000 Ar
    velocity -0.3269058137464939 -0.2350295931589294 -0.8932080889419365
atom 52.6000000000000014 31.5599999999999987 0.0000000000000000 Ar
    velocity -2.2055611002085098 -0.9000976265602255 -0.3977058942815145
atom 0.0000000000000000 36.8200000000000003 0.0000000000000000 Ar
    velocity 0.1225975551818817 0.2280748954704147 1.0595137454445642
atom 5.2599999999999998 36.8200000000000003 0.0000000000000000 Ar
    velocity 0.6128913093161854 0.2305132218117727 -0.7771631550777350
atom 10.5199999999999996 36.8200000000000003 0.0000000000000000 Ar
    velocity -0.5324482819146060 0.6072336478941577 -0.4167689974632657
atom 15.7799999999999994 36.8200000000000003 0.0000000000000000 Ar
    velocity -0.5308126966866830 0.3549692409494634 0.7463017685377823
atom 21.0399999999999991 36.8200000000000003 0.0000000000000000 Ar
    velocity -0.7492573542706700 -1.4193085828934164 1.2968495358682901
atom 26.3000000000000007 36.8200000000000003 0.0000000000000000 Ar
    velocity 0.1102345993287045 1.1489061562089899 -1.3871458338797586
atom 31.5599999999999987 36.8200000000000003 0.0000000000000000 Ar
    velocity 0.2867624134616779 -0.5585060169383964 0.2838711213560275
atom 36.8200000000000003 36.8200000000000003 0.0000000000000000 Ar
    velocity 0.2771386255887910 -0.4851156424290742 0.5564951696643737
atom 42.0799999999999983 36.8200000000000003 0.0000000000000000 Ar
    velocity 0.9048505060634434 0.8135253490457152 -0.5804384633601423
atom 47.3400000000000034 36.8200000000000003 0.0000000000000000 Ar
    velocity 0.7715897700485613 -0.7148987084831734 -0.1991786766040651
atom 52.6000000000000014 36.8200000000000003 0.0000000000000000 Ar
    velocity 0.1781746695744162 -0.6305028861251563 -0.9448534054064583
atom 0.0000000000000000 42.0799999999999983 0.0000000000000000 Ar
    velocity -0.2694570016985200 -0.8205576058651159 0.1348958239518326
atom 5.2599999999999998 42.0799999999999983 0.0000000000000000 Ar
    velocity -1.4264798632777986 0.1038707630887780 -0.5642614109152546
atom 10.5199999999999996 42.0799999999999983 0.0000000000000000 Ar
    velocity -1.5374834189939559 -0.3655287857063629 0.8723659597709494
atom 15.7799999999999994 42.0799999999999983 0.0000000000000000 Ar
    velocity -0.2723281551618715 2.0857453449714112 1.1793229971205130
atom 21.0399999999999991 42.0799999999999983 0.0000000000000000 Ar
    velocity 0.3413606035346605 -0.8757015466804925 0.4349123792240681
atom 26.3000000000000007 42.0799999999999983 0.0000000000000000 Ar
    velocity -0.6358953592935608 1.1079202064004794 0.2883451485502705
atom 31.5599999999999987 42.0799999999999983 0.0000000000000000 Ar
    velocity -1.3363314024144550 -0.5607654777408740 -0.1397091309405444
atom 36.8200000000000003 42.0799999999999983 0.0000000000000000 Ar
    velocity -1.0842994866927624 -0.7385220620726977 -1.0280938166424980
atom 42.0799999999999983 42.0799999999999983 0.0000000000000000 Ar
    velocity -1.4890436045602602 0.3712558671415727 0.1157443060230186
atom 47.3400000000000034 42.0799999999999983 0.0000000000000000 Ar
    velocity 0.7360390665513191 -0.9155318830204715 -0.7102131156449818
atom 52.6000000000000014 42.0799999999999983 0.0000000000000000 Ar
    velocity 0.1881107105950161 0.0725417791609172 0.0046136172197066
atom 0.0000000000000000 47.3400000000000034 0.0000000000000000 Ar
    velocity 0.7169559236378995 -0.9495363696590687 0.3920429390681047
atom 5.2599999999999998 47.3400000000000034 0.0000000000000000 Ar
    velocity -0.9189834311929148 0.5333256350867597 -0.7420884864683889
atom 10.5199999999999996 47.3400000000000034 0.0000000000000000 Ar
    velocity -1.3454466520574737 -0.1757275373882680 1.5376265281228099
atom 15.7799999999999994 47.3400000000000034 0.0000000000000000 Ar
    velocity -0.3695916151369784 -0.8447364764516866 1.1452759203518972
atom 21.0399999999999991 47.3400000000000034 0.0000000000000000 Ar
    velocity 0.4817213242160375 -0.0554036347007441 1.4041494282160172
atom 26.3000000000000007 47.3400000000000034 0.0000000000000000 Ar
    velocity -0.1961514468457699 0.5722709208185670 1.2694782644539639
atom 31.5599999999999987 47.3400000000000034 0.0000000000000000 Ar
    velocity 0.1218680100952486 1.0330815378640223 0.0386952768135324
atom 36.8200000000000003 47.3400000000000034 0.0000000000000000 Ar
    velocity -1.7613925076215695 -0.6309470837443792 0.9230341243418855
atom 42.0799999999999983 47.3400000000000034 0.0000000000000000 Ar
    velocity -0.4761931729525069 0.6283225627604690 -1.0710548869774570
atom 47.3400000000000034 47.3400000000000034 0.0000000000000000 Ar
    velocity -0.2946687256160332 -0.0718056047657301 0.9488897256315069
atom 52.6000000000000014 47.3400000000000034 0.0000000000000000 Ar
    velocity -0.2230478728516491 -1.2671287833131442 1.1477548300656732
atom 0.0000000000000000 52.6000000000000014 0.0000000000000000 Ar
    velocity 0.6899276555097417 1.3338041555707842 1.0422988598954346
atom 5.2599999999999998 52.6000000000000014 0.0000000000000000 Ar
    velocity -0.7861324358276388 0.4352100143147792 0.5246365590160579
atom 10.5199999999999996 52.6000000000000014 0.0000000000000000 Ar
    velocity -2.2365719049291704 1.6860228104670294 0.2032165331757140
atom 15.7799999999999994 52.6000000000000014 0.0000000000000000 Ar
    velocity -1.3984918764822558 1.1247190424761155 -0.3616583434714185
atom 21.0399999999999991 52.6000000000000014 0.0000000000000000 Ar
    velocity -0.1624354114850052 -0.7595847009673610 -1.6194079163261361
atom 26.3000000000000007 52.6000000000000014 0.0000000000000000 Ar
    velocity -0.1597217225985903 0.9643374031559123 -0.6491576442500887
atom 31.5599999999999987 52.6000000000000014 0.0000000000000000 Ar
    velocity -0.9510041982649867 -1.2687345978073117 -0.3667366294270936
atom 36.8200000000000003 52.6000000000000014 0.0000000000000000 Ar
    velocity 1.1365221074834124 -1.0143922530221632 -1.0477586464397040
atom 42.0799999999999983 52.6000000000000014 0.0000000000000000 Ar
    velocity -0.0270312044246984 0.1495824508817596 0.4697270877645439
atom 47.3400000000000034 52.6000000000000014 0.0000000000000000 Ar
    velocity 0.9785290922217311 -0.6795840985730656 -0.0626346916499449
atom 52.6000000000000014 52.6000000000000014 0.0000000000000000 Ar
    velocity 0.4479624912889895 1.2345651413220151 -0.0278858623531293
atom 0.0000000000000000 0.0000000000000000 5.2599999999999998 Ar
    velocity -1.3154163007046207 -0.8624101779241187 0.8054852323309311
atom 5.2599999999999998 0.0000000000000000 5.2599999999999998 Ar
    velocity -0.1894801784285221 1.0225081979033386 0.0147338781329753
atom 10.5199999999999996 0.0000000000000000 5.2599999999999998 Ar
    velocity -0.3173439029403048 -1.4167795526078295 -1.1835512746261423
atom 15.7799999999999994 0.0000000000000000 5.2599999999999998 Ar
    velocity 0.0973555876402402 -0.0840748461374102 0.6766081246984410
atom 21.0399999999999991 0.0000000000000000 5.2599999999999998 Ar
    velocity -0.5380384209297135 -0.0194170978983648 -1.2018660597441004
atom 26.3000000000000007 0.0000000000000000 5.2599999999999998 Ar
    velocity -0.1845773029412446 0.2122327305912419 -0.5501027075658134
atom 31.5599999999999987 0.0000000000000000 5.2599999999999998 Ar
    velocity 0.3184311234978398 -0.5336218078727926 -0.5818969510061223
atom 36.8200000000000003 0.0000000000000000 5.2599999999999998 Ar
    velocity -1.0392209592015162 2.4068028440446541 0.2020439919976064
atom 42.0799999999999983 0.0000000000000000 5.2599999999999998 Ar
    velocity 0.1315320221720873 0.6037901953820903 1.0245188314120337
atom 47.3400000000000034 0.0000000000000000 5.2599999999999998 Ar
    velocity 2.3182677195768573 -0.7196905745067046 0.9656895684947687
atom 52.6000000000000014 0.0000000000000000 5.2599999999999998 Ar
    velocity 0.5711661758667055 1.5484794036411800 -1.4836443763194305
atom 0.0000000000000000 5.2599999999999998 5.2599999999999998 Ar
    velocity -0.6700640839363385 -0.7142471204048988 -0.1116601083658829
atom 5.2599999999999998 5.2599999999999998 5.2599999999999998 Ar
    velocity 0.1756350631601453 -0.0003646526790974 -0.5282703776172146
atom 10.5199999999999996 5.2599999999999998 5.2599999999999998 Ar
    velocity -0.8184997330264016 -1.0208616049010957 -1.4872663931389833
atom 15.7799999999999994 5.2599999999999998 5.2599999999999998 Ar
    velocity 0.1104836539831533 0.1580439751261612 0.1629137065656543
atom 21.0399999999999991 5.2599999999999998 5.2599999999999998 Ar
    velocity -0.8652019868542800 0.7887282721072401 -0.4769140470998591
atom 26.3000000000000007 5.2599999999999998 5.2599999999999998 Ar
    velocity -0.1830431797689949 -0.8571995272663172 -0.8329255339558941
atom 31.5599999999999987 5.2599999999999998 5.2599999999999998 Ar
    velocity 0.2979309754293195 -0.6135677561219026 -0.0043478670367626
atom 36.8200000000000003 5.2599999999999998 5.2599999999999998 Ar
    velocity 0.0509060439162895 0.3308733397148770 0.5859893746781419
atom 42.0799999999999983 5.2599999999999998 5.2599999999999998 Ar
    velocity -0.1910107206607908 0.0203764008976093 1.3567917888780423
atom 47.3400000000000034 5.2599999999999998 5.2599999999999998 Ar
    velocity -0.3995190135396580 -0.4616190824994906 -0.0515053507519964
atom 52.6000000000000014 5.2599999999999998 5.2599999999999998 Ar
    velocity 1.0067872461440697 1.1566898202287286 1.4854020480189862
atom 0.0000000000000000 10.5199999999999996 5.2599999999999998 Ar
    velocity 0.7459890656814641 -0.6078593229941288 0.0044793074612859
atom 5.2599999999999998 10.5199999999999996 5.2599999999999998 Ar
    velocity -0.1075178291986373 0.2412650028066554 -0.3168755778166314
atom 10.5199999999999996 10.5199999999999996 5.2599999999999998 Ar
    velocity 0.1196766300802484 -0.9409435896842753 0.1620600573632977
atom 15.7799999999999994 10.5199999999999996 5.2599999999999998 Ar
    velocity -1.2288959713344711 -0.7173911312602108 0.6392161922732126
atom 21.0399999999999991 10.5199999999999996 5.2599999999999998 Ar
    velocity -0.1936642685648176 -0.3562394322359429 0.8555715805369962
atom 26.3000000000000007 10.5199999999999996 5.2599999999999998 Ar
    velocity -0.5810110888134133 -0.8484450749172048 -0.2242339485530063
atom 31.5599999999999987 10.5199999999999996 5.2599999999999998 Ar
    velocity 0.1824396089884639 0.2927723594887731 -0.4770559475574388
atom 36.8200000000000003 10.5199999999999996 5.2599999999999998 Ar
    velocity -0.3071885570716189 -0.3614376379013718 -0.9332264374489170
atom 42.0799999999999983 10.5199999999999996 5.2599999999999998 Ar
    velocity -0.5602987514112721 0.8740053652022038 -2.1341107775596506
atom 47.3400000000000034 10.5199999999999996 5.2599999999999998 Ar
    velocity 0.6140234108448916 -0.8031011568380750 -0.8369338707795119
atom 52.6000000000000014 10.5199999999999996 5.2599999999999998 Ar
    velocity 0.8457674307567462 -0.2642116141476195 -0.9203938073548944
atom 0.0000000000000000 15.7799999999999994 5.2599999999999998 Ar
    velocity 0.2307197531215547 -0.6485515086361461 -0.2982306669451132
atom 5.2599999999999998 15.7799999999999994 5.2599999999999998 Ar
    velocity 1.2289199993449900 -1.1022849587547199 -0.5696036313796242
atom 10.5199999999999996 15.7799999999999994 5.2599999999999998 Ar
    velocity -0.6190920015251820 -0.6287425900162058 0.1437059607788503
atom 15.7799999999999994 15.7799999999999994 5.2599999999999998 Ar
    velocity -0.3304503978012995 -0.4318603515591858 1.3828658072523210
atom 21.0399999999999991 15.7799999999999994 5.2599999999999998 Ar
    velocity -0.4522634768882012 0.6629297948917484 1.0533941081625866
atom 26.3000000000000007 15.7799999999999994 5.2599999999999998 Ar
    velocity 1.3344995555600616 0.3645182323943140 -0.2287788318616834
atom 31.5599999999999987 15.7799999999999994 5.2599999999999998 Ar
    velocity 0.4114275394272987 -1.2166866074268585 -1.2159965819129059
atom 36.8200000000000003 15.7799999999999994 5.2599999999999998 Ar
    velocity 1.6271567131929676 -0.4146197488455065 -1.2842888973907109
atom 42.0799999999999983 15.7799999999999994 5.2599999999999998 Ar
    velocity -0.2297784038600222 -1.5508538503879594 0.9886053497711119
atom 47.3400000000000034 15.7799999999999994 5.2599999999999998 Ar
    velocity 0.2061171883441084 -0.1602077459147770 -0.1339627041043916
atom 52.6000000000000014 15.7799999999999994 5.2599999999999998 Ar
    velocity -0.7693906549505329 -0.0128453324732756 -0.0717164329223097
atom 0.0000000000000000 21.0399999999999991 5.2599999999999998 Ar
    velocity -0.0268097369504731 -0.0842279124236879 1.1318152227733258
atom 5.2599999999999998 21.0399999999999991 5.2599999999999998 Ar
    velocity 1.2814262847375815 0.6153469134429131 -0.2186535616574584
atom 10.5199999999999996 21.0399999999999991 5.2599999999999998 Ar
    velocity -0.6038552650634338 -0.0270244552540403 0.7623636712454077
atom 15.7799999999999994 21.0399999999999991 5.2599999999999998 Ar
    velocity 0.2245933570682491 -1.2475034000351495 -0.1629228584868886
atom 21.0399999999999991 21.0399999999999991 5.2599999999999998 Ar
    velocity 1.3083357894034049 0.8287555804278953 0.5947967053132223
atom 26.3000000000000007 21.0399999999999991 5.2599999999999998 Ar
    velocity -0.5853066114524563 0.2375837669844841 -0.4077492316913303
atom 31.5599999999999987 21.0399999999999991 5.2599999999999998 Ar
    velocity 0.1676870915503541 -1.3319811542825886 -1.1911222464840900
atom 36.8200000000000003 21.0399999999999991 5.2599999999999998 Ar
    velocity 0.1658855746384723 -0.4063543134187463 0.4957509302378452
atom 42.0799999999999983 21.0399999999999991 5.2599999999999998 Ar
    velocity -1.4506751793879002 -0.5970843492982076 -0.4956705903576285
atom 47.3400000000000034 21.0399999999999991 5.2599999999999998 Ar
    velocity -0.4684928246475650 -0.9695555112497425 0.7415009277904272
atom 52.6000000000000014 21.0399999999999991 5.2599999999999998 Ar
    velocity -0.9676317636342187 -0.7848340426726526 -0.1369355834655993
atom 0.0000000000000000 26.3000000000000007 5.2599999999999998 Ar
    velocity -1.3408843905661494 0.3760677273751618 1.0468973230602423
atom 5.2599999999999998 26.3000000000000007 5.2599999999999998 Ar
    velocity -0.2493369906878200 0.4551616463321467 0.7324227832937701
atom 10.5199999999999996 26.3000000000000007 5.2599999999999998 Ar
    velocity 0.4631431909781784 1.5658554675084075 0.8047973088436947
atom 15.7799999999999994 26.3000000000000007 5.2599999999999998 Ar
    velocity 0.2770969840296117 -0.2205964234970062 0.6744477851805463
atom 21.0399999999999991 26.3000000000000007 5.2599999999999998 Ar
    velocity 1.3831610596985082 -0.4880249180790881 0.9534032893527520
atom 26.3000000000000007 26.3000000000000007 5.2599999999999998 Ar
    velocity 0.2621604190545573 0.9897934068579235 -1.2921266786979557
atom 31.5599999999999987 26.3000000000000007 5.2599999999999998 Ar
    velocity -0.5144418934504467 1.2238675297540478 -0.4512920150942458
atom 36.8200000000000003 26.3000000000000007 5.2599999999999998 Ar
    velocity -1.2256871256998236 0.7588757642712165 -0.8687938180218878
atom 42.0799999999999983 26.3000000000000007 5.2599999999999998 Ar
    velocity -1.2701152190639156 -0.1929276238613582 -0.2582946257092926
atom 47.3400000000000034 26.3000000000000007 5.2599999999999998 Ar
    velocity 0.6284782087117504 -0.3866086872480677 0.4110925280885788
atom 52.6000000000000014 26.3000000000000007 5.2599999999999998 Ar
    velocity 0.0386844591164456 -0.1229519572582181 -0.5239815722448489
atom 0.0000000000000000 31.5599999999999987 5.2599999999999998 Ar
    velocity -0.6007256523555856 -0.3631345014090610 -0.7889569286542512
atom 5.2599999999999998 31.5599999999999987 5.2599999999999998 Ar
    velocity -0.6164402207110383 -0.0734978922040399 0.2390609507340938
atom 10.5199999999999996 31.5599999999999987 5.2599999999999998 Ar
    velocity 0.2077044817262312 -0.1805686884417803 -1.4405685622231708
atom 15.7799999999999994 31.5599999999999987 5.2599999999999998 Ar
    velocity -0.4850286982058749 1.3769982188663079 0.3329336623447527
atom 21.0399999999999991 31.5599999999999987 5.2599999999999998 Ar
    velocity 0.5034546051830796 -2.1016329543560399 0.7058471148741838
atom 26.3000000000000007 31.5599999999999987 5.2599999999999998 Ar
    velocity 0.8181039744454087 -0.9759990309148305 -0.9814439518494051
atom 31.5599999999999987 31.5599999999999987 5.2599999999999998 Ar
    velocity 1.6874107227937374 -1.3788564129385412 0.3569282471830737
atom 36.8200000000000003 31.5599999999999987 5.2599999999999998 Ar
    velocity -0.3826397038682116 -0.3524121770582039 1.3736201061504774
atom 42.0799999999999983 31.5599999999999987 5.2599999999999998 Ar
    velocity -0.4226152511124572 0.9396348480843596 1.0482148665169138
atom 47.3400000000000034 31.5599999999999987 5.2599999999999998 Ar
    velocity 0.5284652884733159 1.1388528787683838 0.4234335082854835
atom 52.6000000000000014 31.5599999999999987 5.2599999999999998 Ar
    velocity -1.0812661028960540 -0.9175826886859735 1.6655173883880083
atom 0.0000000000000000 36.8200000000000003 5.2599999999999998 Ar
    velocity -0.2125390947941263 -1.4386973363125548 0.7703678176891716
atom 5.2599999999999998 36.8200000000000003 5.2599999999999998 Ar
    velocity 0.7747166877120579 0.8949212165143283 -0.4896942890506179
atom 10.5199999999999996 36.8200000000000003 5.2599999999999998 Ar
    velocity 0.0930478226266365 -0.3587435225619302 0.0397872568695664
atom 15.7799999999999994 36.8200000000000003 5.2599999999999998 Ar
    velocity -0.0392008555699540 1.3349082824309106 -0.4427499778748946
atom 21.0399999999999991 36.8200000000000003 5.2599999999999998 Ar
    velocity -0.3767929057030660 -0.6089875177310154 0.8750705909294144
atom 26.3000000000000007 36.8200000000000003 5.2599999999999998 Ar
    velocity 0.9161017576593385 -0.4347534059345377 0.5628114317600367
atom 31.5599999999999987 36.8200000000000003 5.2599999999999998 Ar
    velocity 1.0190974679140126 -0.3438404708206333 0.6721177790766140
atom 36.8200000000000003 36.8200000000000003 5.2599999999999998 Ar
    velocity 0.2886433770852564 -0.0418078311094706 0.4418521623989297
atom 42.0799999999999983 36.8200000000000003 5.2599999999999998 Ar
    velocity -0.8682845139293246 1.5324786755723439 0.2197626540783924
atom 47.3400000000000034 36.8200000000000003 5.2599999999999998 Ar
    velocity 0.8931174495999051 -0.8580818238463527 0.4723455753966967
atom 52.6000000000000014 36.8200000000000003 5.2599999999999998 Ar
    velocity 0.4433259483907043 -0.4858013352728165 -0.3430454334214756
atom 0.0000000000000000 42.0799999999999983 5.2599999999999998 Ar
    velocity -0.1396928555266911 1.5760130535050623 0.6622605186191419
atom 5.2599999999999998 42.0799999999999983 5.2599999999999998 Ar
    velocity 0.1327969170111715 0.3273511649368968 1.8862340405372466
atom 10.5199999999999996 42.0799999999999983 5.2599999999999998 Ar
    velocity -0.6426159567422928 -0.1972877673691250 -1.2834414874290681
atom 15.7799999999999994 42.0799999999999983 5.2599999999999998 Ar
    velocity -0.6035455953087534 0.1271081769687787 0.7228507220074678
atom 21.0399999999999991 42.0799999999999983 5.2599999999999998 Ar