#=======================================================
# FHI-aims file: argon_19652_30k.in
# Created using the Atomic Simulation Environment (ASE)
# Tue Jun 15 19:25:10 2021
#=======================================================
lattice_vector 89.4200000000000017 0.0000000000000000 0.0000000000000000 
lattice_vector 0.0000000000000000 89.4200000000000017 0.0000000000000000 
lattice_vector 0.0000000000000000 0.0000000000000000 89.4200000000000017 
atom 0.0000000000000000 0.0000000000000000 0.0000000000000000 Ar
    velocity -0.8158981250441084 -0.2235152354054841 -0.4304947273788565
atom 5.2599999999999998 0.0000000000000000 0.0000000000000000 Ar
    velocity -0.1051880830260587 -0.0137517098330382 0.8567815788696307
atom 10.5199999999999996 0.0000000000000000 0.0000000000000000 Ar
    velocity 1.7240985337344055 -0.0945489416041278 0.2409957821987904
atom 15.7799999999999994 0.0000000000000000 0.0000000000000000 Ar
    velocity -1.3009805501098528 0.6349372801523266 0.2704052049806508
atom 21.0399999999999991 0.0000000000000000 0.0000000000000000 Ar
    velocity 0.2246997082142231 0.0833846086189452 0.3269495411435918
atom 26.2999999999999972 0.0000000000000000 0.0000000000000000 Ar
    velocity 0.2655494627197729 -1.4866502088839815 -0.4515909426476864
atom 31.5599999999999987 0.0000000000000000 0.0000000000000000 Ar
    velocity 0.6869764075231907 -2.0142146078851457 0.9318553047469118
atom 36.8200000000000003 0.0000000000000000 0.0000000000000000 Ar
    velocity -0.1556239869429598 -0.1596019896622522 1.0141942490969031
atom 42.0799999999999983 0.0000000000000000 0.0000000000000000 Ar
    velocity 0.0402942040459249 0.2580721489363968 -0.1738165867408553
atom 47.3400000000000034 0.0000000000000000 0.0000000000000000 Ar
    velocity 0.7319318731015815 0.0145449082439962 0.7542285965227025
atom 52.5999999999999943 0.0000000000000000 0.0000000000000000 Ar
    velocity -0.1888445269983863 -1.0726985349660001 -0.1043990659011688
atom 57.8600000000000065 0.0000000000000000 0.0000000000000000 Ar
    velocity -1.3273765960448494 0.6925835563344228 0.1858066392300141
atom 63.1199999999999974 0.0000000000000000 0.0000000000000000 Ar
    velocity -0.1663770659557020 -1.2642889251817917 0.9147848129307982
atom 68.3799999999999812 0.0000000000000000 0.0000000000000000 Ar
    velocity -0.2914098010667975 -0.7744481962997173 0.9073534128968215
atom 73.6400000000000006 0.0000000000000000 0.0000000000000000 Ar
    velocity -0.9203254006383746 0.7397383343793682 0.9339384914613246
atom 78.9000000000000057 0.0000000000000000 0.0000000000000000 Ar
    velocity -0.3795386736766287 -0.6655501227680931 0.9989689482126457
atom 84.1599999999999966 0.0000000000000000 0.0000000000000000 Ar
    velocity -0.6125823090212182 0.8098437417699638 0.5389606235056872
atom 0.0000000000000000 5.2599999999999998 0.0000000000000000 Ar
    velocity 0.5579668184310890 0.8206860469910171 0.4478453498427884
atom 5.2599999999999998 5.2599999999999998 0.0000000000000000 Ar
    velocity 0.6673215548376448 0.2628725774354588 0.9037228407830514
atom 10.5199999999999996 5.2599999999999998 0.0000000000000000 Ar
    velocity 0.0216126157670718 -0.3857991387966697 -1.0872889775578072
atom 15.7799999999999994 5.2599999999999998 0.0000000000000000 Ar
    velocity -0.2154780801267921 1.1222802632963191 0.2458966635585831
atom 21.0399999999999991 5.2599999999999998 0.0000000000000000 Ar
    velocity -0.3034036307012722 -0.7652358234993026 0.3536321390088630
atom 26.2999999999999972 5.2599999999999998 0.0000000000000000 Ar
    velocity 0.9806431900013243 -0.0107183924863306 -0.1492663220418902
atom 31.5599999999999987 5.2599999999999998 0.0000000000000000 Ar
    velocity -0.6038980351714108 -0.9614155944887388 0.2680523740403941
atom 36.8200000000000003 5.2599999999999998 0.0000000000000000 Ar
    velocity 0.4066057955721697 -0.1509713300482167 -0.0721259329939302
atom 42.0799999999999983 5.2599999999999998 0.0000000000000000 Ar
    velocity -0.6194544065038244 -0.1215659876358369 -0.3077869289392876
atom 47.3400000000000034 5.2599999999999998 0.0000000000000000 Ar
    velocity -0.1073579807592845 0.1376535292426239 -0.4271105434452359
atom 52.5999999999999943 5.2599999999999998 0.0000000000000000 Ar
    velocity 0.1146101754774665 0.1623828909146903 0.8639927863547270
atom 57.8600000000000065 5.2599999999999998 0.0000000000000000 Ar
    velocity -0.2307633003923727 0.1081808329777613 -0.7281125307456936
atom 63.1199999999999974 5.2599999999999998 0.0000000000000000 Ar
    velocity -0.8515683932030099 0.7092153069632837 0.4353554672526782
atom 68.3799999999999812 5.2599999999999998 0.0000000000000000 Ar
    velocity 0.3767047693939597 -0.2283767565577297 -1.1158122861667019
atom 73.6400000000000006 5.2599999999999998 0.0000000000000000 Ar
    velocity 1.0821221766796105 -1.5856508536206400 0.1104469206416016
atom 78.9000000000000057 5.2599999999999998 0.0000000000000000 Ar
    velocity -0.0723763405925255 -0.3239728042700724 -0.4117477866326526
atom 84.1599999999999966 5.2599999999999998 0.0000000000000000 Ar
    velocity 0.1612803974805363 0.2382063980567480 -0.7744740887016250
atom 0.0000000000000000 10.5199999999999996 0.0000000000000000 Ar
    velocity -0.6840666117544213 0.5308514673057895 -0.1099415479977642
atom 5.2599999999999998 10.5199999999999996 0.0000000000000000 Ar
    velocity -0.3393144805145447 0.6314610766163841 0.0430783893498326
atom 10.5199999999999996 10.5199999999999996 0.0000000000000000 Ar
    velocity 0.1376772437966291 -0.5456055030964820 -0.8667432177812654
atom 15.7799999999999994 10.5199999999999996 0.0000000000000000 Ar
    velocity 0.9540961507354512 0.1636442081381103 -0.0785980127341172
atom 21.0399999999999991 10.5199999999999996 0.0000000000000000 Ar
    velocity -0.2584600273939329 0.3051419908609957 0.3246031927311868
atom 26.2999999999999972 10.5199999999999996 0.0000000000000000 Ar
    velocity 0.7057550282882735 1.0263192072117460 -0.0554461354781442
atom 31.5599999999999987 10.5199999999999996 0.0000000000000000 Ar
    velocity 0.1015862581092764 0.6566153188458695 0.2451610217518344
atom 36.8200000000000003 10.5199999999999996 0.0000000000000000 Ar
    velocity 0.1353874236354579 -0.2922320282984552 -0.0432007687260625
atom 42.0799999999999983 10.5199999999999996 0.0000000000000000 Ar
    velocity 1.8872628079857714 2.6773214799923264 0.1885242869846596
atom 47.3400000000000034 10.5199999999999996 0.0000000000000000 Ar
    velocity 0.1705334857004127 0.9922081292329882 -1.3907154223558593
atom 52.5999999999999943 10.5199999999999996 0.0000000000000000 Ar
    velocity -0.6305355651930736 0.6498881620642232 -0.3537728019154869
atom 57.8600000000000065 10.5199999999999996 0.0000000000000000 Ar
    velocity -0.1918084369297182 0.4752853359049697 0.3789565622574416
atom 63.1199999999999974 10.5199999999999996 0.0000000000000000 Ar
    velocity 0.6752436315589543 -1.5845755538282380 0.3981293062411210
atom 68.3799999999999812 10.5199999999999996 0.0000000000000000 Ar
    velocity 1.1918117032520528 0.2051365589457904 -0.7533596658259724
atom 73.6400000000000006 10.5199999999999996 0.0000000000000000 Ar
    velocity 1.5870037415858307 -1.2102132356252295 -0.0194516573885172
atom 78.9000000000000057 10.5199999999999996 0.0000000000000000 Ar
    velocity -0.8937251619420284 -0.1171391363565362 -0.9257127624982887
atom 84.1599999999999966 10.5199999999999996 0.0000000000000000 Ar
    velocity 0.2275464264897105 0.5682079178492219 -1.0478457417193652
atom 0.0000000000000000 15.7799999999999994 0.0000000000000000 Ar
    velocity -2.0504203795136946 0.1538237339688857 -0.3274349244464929
atom 5.2599999999999998 15.7799999999999994 0.0000000000000000 Ar
    velocity 0.6995520475875656 0.0250542834929719 -0.5651831757472033
atom 10.5199999999999996 15.7799999999999994 0.0000000000000000 Ar
    velocity 0.4792131817268505 0.0157201540808414 1.5899735614288431
atom 15.7799999999999994 15.7799999999999994 0.0000000000000000 Ar
    velocity 1.1355287690008802 0.5870655030120281 -0.1245530330889120
atom 21.0399999999999991 15.7799999999999994 0.0000000000000000 Ar
    velocity -0.1493236343968910 -0.9130660241920510 -0.8984705781643393
atom 26.2999999999999972 15.7799999999999994 0.0000000000000000 Ar
    velocity 0.6643305699303668 -0.7070571224049659 1.3531222857175209
atom 31.5599999999999987 15.7799999999999994 0.0000000000000000 Ar
    velocity 0.6976455467094616 -0.8028152415395023 0.0010883942225348
atom 36.8200000000000003 15.7799999999999994 0.0000000000000000 Ar
    velocity 0.1550455572073644 0.2708295034183382 -0.4191542909980147
atom 42.0799999999999983 15.7799999999999994 0.0000000000000000 Ar
    velocity 0.7639798381133207 -0.8549548079656774 1.5703766930719472
atom 47.3400000000000034 15.7799999999999994 0.0000000000000000 Ar
    velocity 0.7308422544261959 -0.2881497474897155 -0.3404646015180015
atom 52.5999999999999943 15.7799999999999994 0.0000000000000000 Ar
    velocity 0.3924283338551320 1.1605055408598359 -0.5702844867201183
atom 57.8600000000000065 15.7799999999999994 0.0000000000000000 Ar
    velocity 0.0450844901857425 -0.1070486988234228 -0.6567082199855065
atom 63.1199999999999974 15.7799999999999994 0.0000000000000000 Ar
    velocity 0.1682384375554883 -1.0317429563436467 1.1996920397842818
atom 68.3799999999999812 15.7799999999999994 0.0000000000000000 Ar
    velocity 1.3395373507100179 0.8103040739412180 -0.1317836558401876
atom 73.6400000000000006 15.7799999999999994 0.0000000000000000 Ar
    velocity -0.4867349188221011 0.7320686478552846 0.5008706456417701
atom 78.9000000000000057 15.7799999999999994 0.0000000000000000 Ar
    velocity 0.8432537182423002 0.5368057742247047 0.8924389866154606
atom 84.1599999999999966 15.7799999999999994 0.0000000000000000 Ar
    velocity 2.4676738138399927 -0.2848918222069920 0.4529229455918261
atom 0.0000000000000000 21.0399999999999991 0.0000000000000000 Ar
    velocity 0.9282846002815751 -0.1093751587275750 -0.3595797493193946
atom 5.2599999999999998 21.0399999999999991 0.0000000000000000 Ar
    velocity -0.5726977855386436 0.3831655876837975 -1.3631989891374336
atom 10.5199999999999996 21.0399999999999991 0.0000000000000000 Ar
    velocity -0.0147106445273793 -0.6647762966192816 1.0684984276675862
atom 15.7799999999999994 21.0399999999999991 0.0000000000000000 Ar
    velocity 0.1578623605656472 -0.3967554040358730 -0.3932058191534928
atom 21.0399999999999991 21.0399999999999991 0.0000000000000000 Ar
    velocity -0.4906485691807477 0.7163068883197743 -0.2986951983212517
atom 26.2999999999999972 21.0399999999999991 0.0000000000000000 Ar
    velocity -1.2509535153137454 0.8857923761999066 0.3533961413429504
atom 31.5599999999999987 21.0399999999999991 0.0000000000000000 Ar
    velocity -0.6775070283143549 -0.0697845311162369 -0.4753341698684179
atom 36.8200000000000003 21.0399999999999991 0.0000000000000000 Ar
    velocity -0.9578598635271452 0.1149590274601128 -0.6181568017805844
atom 42.0799999999999983 21.0399999999999991 0.0000000000000000 Ar
    velocity 0.3237217795755183 0.5961237524746732 -0.7976059715108621
atom 47.3400000000000034 21.0399999999999991 0.0000000000000000 Ar
    velocity -0.3811373829138091 0.1095062454502882 -0.0869301749325953
atom 52.5999999999999943 21.0399999999999991 0.0000000000000000 Ar
    velocity -0.2446920484834827 -1.4036596689869214 -1.6114776139000295
atom 57.8600000000000065 21.0399999999999991 0.0000000000000000 Ar
    velocity 0.3665299188212191 0.1116128169824200 0.9443610337033782
atom 63.1199999999999974 21.0399999999999991 0.0000000000000000 Ar
    velocity -0.7261623724951209 -1.0139895964761065 0.4742987077997182
atom 68.3799999999999812 21.0399999999999991 0.0000000000000000 Ar
    velocity 0.5539500708678017 1.2766825207480601 0.1573369295829996
atom 73.6400000000000006 21.0399999999999991 0.0000000000000000 Ar
    velocity -0.6110599369449845 0.0659785218813808 -0.8739352361447843
atom 78.9000000000000057 21.0399999999999991 0.0000000000000000 Ar
    velocity 0.2820446883451954 0.8854423489946290 -0.2264448508621500
atom 84.1599999999999966 21.0399999999999991 0.0000000000000000 Ar
    velocity 0.2060033903341778 -0.7784347816889609 0.6981024266611241
atom 0.0000000000000000 26.2999999999999972 0.0000000000000000 Ar
    velocity 0.7479106959457681 0.1351736623524473 -0.2781811182798211
atom 5.2599999999999998 26.2999999999999972 0.0000000000000000 Ar
    velocity -0.7119269535739541 -0.7961816842080439 -1.4944348825463556
atom 10.5199999999999996 26.2999999999999972 0.0000000000000000 Ar
    velocity -0.3903037571324253 -1.0183164242216405 -0.0048759589276470
atom 15.7799999999999994 26.2999999999999972 0.0000000000000000 Ar
    velocity -0.2549366024311008 0.5459289332106507 -0.8608820740196542
atom 21.0399999999999991 26.2999999999999972 0.0000000000000000 Ar
    velocity 1.1435919319234502 -0.3883044588910876 1.1608736458197142
atom 26.2999999999999972 26.2999999999999972 0.0000000000000000 Ar
    velocity -0.7283870961567172 1.0281518936359437 1.2351965284275579
atom 31.5599999999999987 26.2999999999999972 0.0000000000000000 Ar
    velocity -0.0135820864867471 0.7575192475788617 0.1510958226088296
atom 36.8200000000000003 26.2999999999999972 0.0000000000000000 Ar
    velocity 0.3892801571132558 -0.7452370175694756 0.1278178431958712
atom 42.0799999999999983 26.2999999999999972 0.0000000000000000 Ar
    velocity 1.2444929326802465 0.9134089344064553 -0.5219020507442159
atom 47.3400000000000034 26.2999999999999972 0.0000000000000000 Ar
    velocity 0.6919994417277969 0.5048364682543528 -0.2072892329337563
atom 52.5999999999999943 26.2999999999999972 0.0000000000000000 Ar
    velocity -0.7480724927696335 -0.6485552590098085 0.5372656918002496
atom 57.8600000000000065 26.2999999999999972 0.0000000000000000 Ar
    velocity -0.1075100180489039 -0.1283859148195424 -0.4884824776288463
atom 63.1199999999999974 26.2999999999999972 0.0000000000000000 Ar
    velocity 0.5557951424125114 0.9946774893272767 -0.9933405718741799
atom 68.3799999999999812 26.2999999999999972 0.0000000000000000 Ar
    velocity -0.6702864665857865 -0.8130610708325776 1.9206519309380539
atom 73.6400000000000006 26.2999999999999972 0.0000000000000000 Ar
    velocity -0.1642935141935211 0.4171625513998202 0.6436328717259199
atom 78.9000000000000057 26.2999999999999972 0.0000000000000000 Ar
    velocity -1.5037737917159879 0.1907823950112351 -0.2570592873895436
atom 84.1599999999999966 26.2999999999999972 0.0000000000000000 Ar
    velocity 1.2467834800198381 0.4477428208016707 -0.1177180583728772
atom 0.0000000000000000 31.5599999999999987 0.0000000000000000 Ar
    velocity -1.7250329497785493 0.7705374808412696 -1.0303506584723294
atom 5.2599999999999998 31.5599999999999987 0.0000000000000000 Ar
    velocity 1.2834120304843655 0.1324229242101092 1.1712269194201390
atom 10.5199999999999996 31.5599999999999987 0.0000000000000000 Ar
    velocity 0.6128632417203658 -0.1996394243438700 -0.2084938320611465
atom 15.7799999999999994 31.5599999999999987 0.0000000000000000 Ar
    velocity 0.8070768392750944 0.2452095332734930 0.4752175905023059
atom 21.0399999999999991 31.5599999999999987 0.0000000000000000 Ar
    velocity 1.3654036305699582 0.1974576856759310 0.0868999430563125
atom 26.2999999999999972 31.5599999999999987 0.0000000000000000 Ar
    velocity -0.0160868787626634 0.3549517153150013 0.3816509571091036
atom 31.5599999999999987 31.5599999999999987 0.0000000000000000 Ar
    velocity -0.8160965909985922 0.5417242930437464 -0.1136173696850343
atom 36.8200000000000003 31.5599999999999987 0.0000000000000000 Ar
    velocity -1.0113691732146193 0.7463823860773364 -1.1225460519255899
atom 42.0799999999999983 31.5599999999999987 0.0000000000000000 Ar
    velocity 0.4195469371708758 0.2011814207174803 -0.6738099304273132
atom 47.3400000000000034 31.5599999999999987 0.0000000000000000 Ar
    velocity -1.4788320007845495 -1.1055573944645660 0.4552838875401246
atom 52.5999999999999943 31.5599999999999987 0.0000000000000000 Ar
    velocity -0.1709669590259630 -0.2826343239189104 0.3506664118667567
atom 57.8600000000000065 31.5599999999999987 0.0000000000000000 Ar
    velocity -0.0612090608450716 1.3046679487393043 -0.2652512360393408
atom 63.1199999999999974 31.5599999999999987 0.0000000000000000 Ar
    velocity 1.5344601054302454 -0.4257799203020377 -0.3670791817272595
atom 68.3799999999999812 31.5599999999999987 0.0000000000000000 Ar
    velocity -1.0246288025340524 -0.4078301237079676 0.4392982522434331
atom 73.6400000000000006 31.5599999999999987 0.0000000000000000 Ar
    velocity -0.4619922260594931 -0.8178870658928619 0.6066607279722607
atom 78.9000000000000057 31.5599999999999987 0.0000000000000000 Ar
    velocity -0.5536971324120586 -0.7752682646666423 0.3393323154521157
atom 84.1599999999999966 31.5599999999999987 0.0000000000000000 Ar
    velocity -0.0820893425590429 -0.0188789724239259 -0.1852730569893002
atom 0.0000000000000000 36.8200000000000003 0.0000000000000000 Ar
    velocity 0.3063847702234135 0.2066073053706101 -0.1389069025374661
atom 5.2599999999999998 36.8200000000000003 0.0000000000000000 Ar
    velocity 0.2955363534266935 -0.2950226124057220 -0.0757676103121014
atom 10.5199999999999996 36.8200000000000003 0.0000000000000000 Ar
    velocity 0.5640297413412924 0.7777277816750955 0.2325011394945568
atom 15.7799999999999994 36.8200000000000003 0.0000000000000000 Ar
    velocity 0.5334862364220075 0.0257535164918227 -0.5742715837359654
atom 21.0399999999999991 36.8200000000000003 0.0000000000000000 Ar
    velocity 0.1949107359890219 0.9292759951124157 0.3732936570058386
atom 26.2999999999999972 36.8200000000000003 0.0000000000000000 Ar
    velocity 0.0037905608196505 -0.1675190440418004 0.4512615325139078
atom 31.5599999999999987 36.8200000000000003 0.0000000000000000 Ar
    velocity -0.3550700967689210 0.8384268235518774 -1.3562462151588375
atom 36.8200000000000003 36.8200000000000003 0.0000000000000000 Ar
    velocity 0.3657567451325660 0.2473105319623079 0.6138694845311616
atom 42.0799999999999983 36.8200000000000003 0.0000000000000000 Ar
    velocity 0.7823896236477899 -0.1900482374478754 0.5072480611868079
atom 47.3400000000000034 36.8200000000000003 0.0000000000000000 Ar
    velocity 2.2686385206234099 -1.3688690200984754 1.4922825464740053
atom 52.5999999999999943 36.8200000000000003 0.0000000000000000 Ar
    velocity 0.0798444218367301 0.6550303316777918 -0.4992024825214554
atom 57.8600000000000065 36.8200000000000003 0.0000000000000000 Ar
    velocity 0.2315392946766604 -0.5735228157930108 -0.0561124188590423
atom 63.1199999999999974 36.8200000000000003 0.0000000000000000 Ar
    velocity -0.8581849402029198 1.2637440085807510 -0.2071752279069098
atom 68.3799999999999812 36.8200000000000003 0.0000000000000000 Ar
    velocity 1.4772782178679646 -0.1362332385595703 -1.4546381993525745
atom 73.6400000000000006 36.8200000000000003 0.0000000000000000 Ar
    velocity 0.0704863514873249 0.2251292438206114 -0.4038542311494974
atom 78.9000000000000057 36.8200000000000003 0.0000000000000000 Ar
    velocity 0.0212224092657256 0.1600441623821636 -1.7407509384689703
atom 84.1599999999999966 36.8200000000000003 0.0000000000000000 Ar
    velocity 1.0705165771500487 0.0313568405465922 -0.9556674031777432
atom 0.0000000000000000 42.0799999999999983 0.0000000000000000 Ar
    velocity 0.1151119180555118 0.7964924671095697 0.1700208115705684
atom 5.2599999999999998 42.0799999999999983 0.0000000000000000 Ar
    velocity -0.1635817692335254 -0.5735515310262912 -0.6970758313591209
atom 10.5199999999999996 42.0799999999999983 0.0000000000000000 Ar
    velocity -0.0964359280414172 -1.7116627890524587 -0.7528513064103609
atom 15.7799999999999994 42.0799999999999983 0.0000000000000000 Ar
    velocity -1.6748239641424096 0.7762707547373296 -0.6382210390331787
atom 21.0399999999999991 42.0799999999999983 0.0000000000000000 Ar
    velocity -0.7143471398989506 1.1849352503452173 0.1649045863459423
atom 26.2999999999999972 42.0799999999999983 0.0000000000000000 Ar
    velocity 0.1223461719544176 -0.1607871159982100 1.2173014034931964
atom 31.5599999999999987 42.0799999999999983 0.0000000000000000 Ar
    velocity -0.8682909866132601 0.3389402889945579 0.3308932326960952
atom 36.8200000000000003 42.0799999999999983 0.0000000000000000 Ar
    velocity 0.2015718220410641 0.1276869740440196 -0.2414816648548665
atom 42.0799999999999983 42.0799999999999983 0.0000000000000000 Ar
    velocity 0.4284374196592447 -0.1941942063368564 0.2190357976112788
atom 47.3400000000000034 42.0799999999999983 0.0000000000000000 Ar
    velocity 1.2708510795067589 -0.4896160429964637 0.7228967533672288
atom 52.5999999999999943 42.0799999999999983 0.0000000000000000 Ar
    velocity 1.1868790014004587 -0.8225831282831497 -0.2085275418240144
atom 57.8600000000000065 42.0799999999999983 0.0000000000000000 Ar
    velocity 1.3499047818097447 -0.3451294608737405 -0.5593170695080968
atom 63.1199999999999974 42.0799999999999983 0.0000000000000000 Ar
    velocity 0.4506709234335263 0.8479667786899849 -0.8673413016769290
atom 68.3799999999999812 42.0799999999999983 0.0000000000000000 Ar
    velocity -0.2379820055775317 0.4836770626024980 -0.4252437938974364
atom 73.6400000000000006 42.0799999999999983 0.0000000000000000 Ar
    velocity 0.3791928886536103 -0.4646639615083738 0.2447998621268821
atom 78.9000000000000057 42.0799999999999983 0.0000000000000000 Ar
    velocity 0.1353159646214754 -0.0882964632301867 -1.0425626533319645
atom 84.1599999999999966 42.0799999999999983 0.0000000000000000 Ar
    velocity 0.1435059474732878 -0.1826966733374221 -0.0000727619533000
atom 0.0000000000000000 47.3400000000000034 0.0000000000000000 Ar
    velocity 0.4178491178138676 0.4502894368194092 -0.0549780553269351
atom 5.2599999999999998 47.3400000000000034 0.0000000000000000 Ar
    velocity 0.2444899731393865 -1.5605147484844555 -0.3633975619561957
atom 10.5199999999999996 47.3400000000000034 0.0000000000000000 Ar
    velocity 0.5056357869526508 0.4852829407365840 -0.0579950955484010
atom 15.7799999999999994 47.3400000000000034 0.0000000000000000 Ar
    velocity -0.5512394975383427 0.7480511735908989 0.0208638664444369
atom 21.0399999999999991 47.3400000000000034 0.0000000000000000 Ar
    velocity 0.8250796880552259 0.3793527779661723 1.0630271117715009
atom 26.2999999999999972 47.3400000000000034 0.0000000000000000 Ar
    velocity -0.1486907507090869 0.1533905400841599 -1.1306522522863713
atom 31.5599999999999987 47.3400000000000034 0.0000000000000000 Ar
    velocity -0.4995325418652028 0.1422790624057167 -0.7173948541393018
atom 36.8200000000000003 47.3400000000000034 0.0000000000000000 Ar
    velocity 0.4563925766534591 0.5497699694818524 -0.7214482672458912
atom 42.0799999999999983 47.3400000000000034 0.0000000000000000 Ar
    velocity 1.1041551182388247 -1.0325450496364976 0.7415161686284155
atom 47.3400000000000034 47.3400000000000034 0.0000000000000000 Ar
    velocity 1.0088661866306563 -0.3318362828889759 -1.6049157782942403
atom 52.5999999999999943 47.3400000000000034 0.0000000000000000 Ar
    velocity 1.1399376594483939 -0.6845184055029511 -1.1425534313440788
atom 57.8600000000000065 47.3400000000000034 0.0000000000000000 Ar
    velocity -0.2655082507608189 -0.8964043805345173 -1.0267461496166288
atom 63.1199999999999974 47.3400000000000034 0.0000000000000000 Ar
    velocity -0.2612286614715544 0.1613499209058141 0.9494852984550803
atom 68.3799999999999812 47.3400000000000034 0.0000000000000000 Ar
    velocity -1.3037258567051246 1.2071553887785982 -0.7874663994552139
atom 73.6400000000000006 47.3400000000000034 0.0000000000000000 Ar
    velocity 0.0327625071586563 0.0717219657143228 -1.1252836933370054
atom 78.9000000000000057 47.3400000000000034 0.0000000000000000 Ar
    velocity 0.7010123288518140 -1.1023409199968359 -1.1467330489450365
atom 84.1599999999999966 47.3400000000000034 0.0000000000000000 Ar
    velocity 0.4908036295270898 -1.7966655198994987 0.0305589252258890
atom 0.0000000000000000 52.5999999999999943 0.0000000000000000 Ar
    velocity -0.7843930944291156 -0.4578989915674117 -0.6062606442979782
atom 5.2599999999999998 52.5999999999999943 0.0000000000000000 Ar
    velocity 0.5264079509370406 0.4652997482588385 0.3269749166414935
atom 10.5199999999999996 52.5999999999999943 0.0000000000000000 Ar
    velocity 0.0944798692734343 0.3601713765002746 -0.2425095985867776
atom 15.7799999999999994 52.5999999999999943 0.0000000000000000 Ar
    velocity 0.0236016981569570 -0.0374593447758219 -0.2548324719272185
atom 21.0399999999999991 52.5999999999999943 0.0000000000000000 Ar
    velocity -0.6002143957732669 -0.6283808671509997 1.8365023385329311
atom 26.2999999999999972 52.5999999999999943 0.0000000000000000 Ar
    velocity 0.2289634224669179 0.2266960991793227 -0.5334256641637792
atom 31.5599999999999987 52.5999999999999943 0.0000000000000000 Ar
    velocity -0.2628207714069259 -0.6895274523312334 0.1438403374292009
atom 36.8200000000000003 52.5999999999999943 0.0000000000000000 Ar
    velocity -1.6637224405682323 -0.3832750627636462 1.1753312941161300
atom 42.0799999999999983 52.5999999999999943 0.0000000000000000 Ar
    velocity 0.3206077034966399 -0.2117148627093912 0.0639658395385785
atom 47.3400000000000034 52.5999999999999943 0.0000000000000000 Ar
    velocity 0.6334473930006639 0.9107038790494596 0.3540705515420293
atom 52.5999999999999943 52.5999999999999943 0.0000000000000000 Ar
    velocity -0.4043674376121190 -0.8282761915157415 -0.6782411604608134
atom 57.8600000000000065 52.5999999999999943 0.0000000000000000 Ar
    velocity -0.4424734969962805 -0.5981085418068466 -0.2545693683733963
atom 63.1199999999999974 52.5999999999999943 0.0000000000000000 Ar
    velocity -0.6461254294697952 0.7239509781978278 0.1821849659230026
atom 68.3799999999999812 52.5999999999999943 0.0000000000000000 Ar
    velocity 0.7644554268793302 -0.6756387641915500 0.1826208520355024
atom 73.6400000000000006 52.5999999999999943 0.0000000000000000 Ar
    velocity 0.3303113936025882 -0.1970214155328151 0.6137751253659363
atom 78.9000000000000057 52.5999999999999943 0.0000000000000000 Ar
    velocity -0.4859275272323632 -1.0043447908424710 -0.6477100946477361
atom 84.1599999999999966 52.5999999999999943 0.0000000000000000 Ar
    velocity -1.0471593958284651 -0.6053144676192950 -1.1857104979610322
atom 0.0000000000000000 57.8600000000000065 0.0000000000000000 Ar
    velocity 0.5888569531261930 1.7183538566376337 -0.5062973748650575
atom 5.2599999999999998 57.8600000000000065 0.0000000000000000 Ar
    velocity -0.1599320900195103 -0.2634516333219534 0.3590429289601015
atom 10.5199999999999996 57.8600000000000065 0.0000000000000000 Ar
    velocity 1.4965162642577152 0.4553977174079917 0.9636178879929375
atom 15.7799999999999994 57.8600000000000065 0.0000000000000000 Ar
    velocity -0.4432970218443423 0.8354439019046936 -0.7075685478614131
atom 21.0399999999999991 57.8600000000000065 0.0000000000000000 Ar
    velocity 1.1637140077383124 -1.0219954085799106 0.8954287968612421
atom 26.2999999999999972 57.8600000000000065 0.0000000000000000 Ar
    velocity 0.5790416709470476 -0.4430435973903030 -0.1117695145596806
atom 31.5599999999999987 57.8600000000000065 0.0000000000000000 Ar
    velocity 0.4390960895448912 0.3607908622735857 -0.4511738671575040
atom 36.8200000000000003 57.8600000000000065 0.0000000000000000 Ar
    velocity -0.1803554483134566 0.6697019817103023 0.7361961434380118
atom 42.0799999999999983 57.8600000000000065 0.0000000000000000 Ar
    velocity 0.0193091021501844 0.4069836384143465 0.5543301387950218
atom 47.3400000000000034 57.8600000000000065 0.0000000000000000 Ar
    velocity 0.3731541019811410 -1.0706739294166958 -0.4924904480160940
atom 52.5999999999999943 57.8600000000000065 0.0000000000000000 Ar
    velocity 0.7295392392356512 0.9150755668179485 -0.1915085008214690
atom 57.8600000000000065 57.8600000000000065 0.0000000000000000 Ar
    velocity 1.2679524569426173 0.7662136023422420 0.1601172660276492
atom 63.1199999999999974 57.8600000000000065 0.0000000000000000 Ar
    velocity 0.3147658734109877 -0.5018338476877285 1.4325212632388662
atom 68.3799999999999812 57.8600000000000065 0.0000000000000000 Ar
    velocity -0.1873949236339589 0.5168420693249204 1.3618228556398606
atom 73.6400000000000006 57.8600000000000065 0.0000000000000000 Ar
    velocity -1.2691274465106801 -0.5207923901831988 0.3076525937458900
atom 78.9000000000000057 57.8600000000000065 0.0000000000000000 Ar
    velocity -0.0819189370977184 -0.1533922715122097 -0.6953529437329398
atom 84.1599999999999966 57.8600000000000065 0.0000000000000000 Ar
    velocity -0.5705619564250601 0.0337002718451083 -0.9814379939749085
atom 0.0000000000000000 63.1199999999999974 0.0000000000000000 Ar
    velocity -0.1275616139165826 0.0325045841519051 0.6459647819673210
atom 5.2599999999999998 63.1199999999999974 0.0000000000000000 Ar
    velocity -1.5771411934411412 -0.4330885931487761 1.4077269411708744
atom 10.5199999999999996 63.1199999999999974 0.0000000000000000 Ar
    velocity -0.3763334666452470 -0.0380235437285342 0.0591912532397694
atom 15.7799999999999994 63.1199999999999974 0.0000000000000000 Ar
    velocity -0.3075521580255332 -1.1871217572380508 0.8890724619726839
atom 21.0399999999999991 63.1199999999999974 0.0000000000000000 Ar
    velocity -0.8907590842013050 -0.0179600388401345 -1.1773506295448726
atom 26.2999999999999972 63.1199999999999974 0.0000000000000000 Ar
    velocity -0.1734635704728763 0.4497195673984027 -0.4601760918825190
atom 31.5599999999999987 63.1199999999999974 0.0000000000000000 Ar
    velocity 0.8098436613259785 1.6178757768578105 -0.7857632167525503
atom 36.8200000000000003 63.1199999999999974 0.0000000000000000 Ar
    velocity 0.3715507581212003 1.1928782827384026 -1.5927761890527565
atom 42.0799999999999983 63.1199999999999974 0.0000000000000000 Ar
    velocity -0.6954262432670276 0.4113358720965692 0.3120969093532327
atom 47.3400000000000034 63.1199999999999974 0.0000000000000000 Ar