#=======================================================
# FHI-aims file: argon_23328_30k.in
# Created using the Atomic Simulation Environment (ASE)
# Tue Jun 15 19:25:16 2021
#=======================================================
lattice_vector 94.6799999999999926 0.0000000000000000 0.0000000000000000 
lattice_vector 0.0000000000000000 94.6799999999999926 0.0000000000000000 
lattice_vector 0.0000000000000000 0.0000000000000000 94.6799999999999926 
atom 0.0000000000000000 0.0000000000000000 0.0000000000000000 Ar
    velocity -0.4227826376736161 -1.0886718960162800 1.5984963680583704
atom 5.2599999999999989 0.0000000000000000 0.0000000000000000 Ar
    velocity -0.9142650248023330 -0.9299853731887988 1.1513623379098850
atom 10.5199999999999978 0.0000000000000000 0.0000000000000000 Ar
    velocity -0.3669509241030032 0.5728895626533038 -0.4320348658698857
atom 15.7799999999999976 0.0000000000000000 0.0000000000000000 Ar
    velocity -0.1730643713717443 0.3617744610183563 -0.9665474022891761
atom 21.0399999999999956 0.0000000000000000 0.0000000000000000 Ar
    velocity -2.2125413696362797 -0.3121569454280750 -0.2093538689821033
atom 26.3000000000000007 0.0000000000000000 0.0000000000000000 Ar
    velocity 0.9036986363999631 -0.3525336424035815 0.0290218011918012
atom 31.5599999999999952 0.0000000000000000 0.0000000000000000 Ar
    velocity -0.1634656498607456 0.1979735098959882 -0.7413179711224072
atom 36.8199999999999932 0.0000000000000000 0.0000000000000000 Ar
    velocity 0.2227510678000481 0.1868201580156681 0.3702962187149551
atom 42.0799999999999912 0.0000000000000000 0.0000000000000000 Ar
    velocity -0.6208475250762020 0.2950814838314507 -0.5283443781044243
atom 47.3399999999999963 0.0000000000000000 0.0000000000000000 Ar
    velocity 0.8535647462785886 0.7777119449899166 -0.3081932807548355
atom 52.6000000000000014 0.0000000000000000 0.0000000000000000 Ar
    velocity -1.1580654896931901 1.0669105132198080 -0.1960717459977291
atom 57.8599999999999923 0.0000000000000000 0.0000000000000000 Ar
    velocity -0.8570683560709415 0.4357699557680936 -0.1915995292348568
atom 63.1199999999999903 0.0000000000000000 0.0000000000000000 Ar
    velocity -0.7262783519014203 0.3752971279035383 0.5117687648078532
atom 68.3799999999999955 0.0000000000000000 0.0000000000000000 Ar
    velocity -0.1498465949618953 -1.1325594942530570 -0.5106230459733017
atom 73.6399999999999864 0.0000000000000000 0.0000000000000000 Ar
    velocity -1.0342967614251750 -0.5309743293334920 -0.0953023206651493
atom 78.8999999999999915 0.0000000000000000 0.0000000000000000 Ar
    velocity -1.0047439088105150 0.7244912884595537 -0.9440629941375271
atom 84.1599999999999824 0.0000000000000000 0.0000000000000000 Ar
    velocity -0.6736050263019960 0.0310707306986869 -0.6134277377629905
atom 89.4199999999999733 0.0000000000000000 0.0000000000000000 Ar
    velocity 0.9905616250979261 -0.7877111497369363 0.7804463603945079
atom 0.0000000000000000 5.2599999999999989 0.0000000000000000 Ar
    velocity 0.0179051584168659 -0.4742465087359585 -0.6479600666538877
atom 5.2599999999999989 5.2599999999999989 0.0000000000000000 Ar
    velocity 0.9068193792126905 -0.8433828913262834 0.7793770514106462
atom 10.5199999999999978 5.2599999999999989 0.0000000000000000 Ar
    velocity -0.3478142522714962 -0.1203886390130305 0.1413285563726835
atom 15.7799999999999976 5.2599999999999989 0.0000000000000000 Ar
    velocity 0.1357407252808272 0.2387653585621087 -0.4262182903809258
atom 21.0399999999999956 5.2599999999999989 0.0000000000000000 Ar
    velocity 0.0618753490262915 -0.0449634544208718 -1.0906749190776088
atom 26.3000000000000007 5.2599999999999989 0.0000000000000000 Ar
    velocity -1.0730402157358001 0.4479699424274115 -1.2537343800076881
atom 31.5599999999999952 5.2599999999999989 0.0000000000000000 Ar
    velocity -0.9056840504934727 0.8886565917658816 0.6114421670614973
atom 36.8199999999999932 5.2599999999999989 0.0000000000000000 Ar
    velocity 0.8459328856868947 -0.4222204686688832 0.0322960378387031
atom 42.0799999999999912 5.2599999999999989 0.0000000000000000 Ar
    velocity 0.6592756709123910 -1.4316267748684506 -0.9097422921312649
atom 47.3399999999999963 5.2599999999999989 0.0000000000000000 Ar
    velocity 0.8336884504376096 1.3217759010787746 -0.0222929758672987
atom 52.6000000000000014 5.2599999999999989 0.0000000000000000 Ar
    velocity -1.0529189739302252 0.1281343399933856 -0.5750859990639245
atom 57.8599999999999923 5.2599999999999989 0.0000000000000000 Ar
    velocity 0.1191558200034533 -0.2033543006562143 0.5226050771805002
atom 63.1199999999999903 5.2599999999999989 0.0000000000000000 Ar
    velocity -0.3789302341962620 0.7281156122654071 -1.0043185055254087
atom 68.3799999999999955 5.2599999999999989 0.0000000000000000 Ar
    velocity 0.0798407218969990 0.2766474674254062 -0.3371943754091423
atom 73.6399999999999864 5.2599999999999989 0.0000000000000000 Ar
    velocity -0.4493269948852726 -0.1767935524655350 -0.5104771749166789
atom 78.8999999999999915 5.2599999999999989 0.0000000000000000 Ar
    velocity -0.5823614420259254 0.2621451566398690 -0.8269083856127450
atom 84.1599999999999824 5.2599999999999989 0.0000000000000000 Ar
    velocity -0.0669700378021023 0.3041544547168589 -1.9558376072375068
atom 89.4199999999999733 5.2599999999999989 0.0000000000000000 Ar
    velocity 0.3173525877466160 -0.4126016209547512 2.0060755893289453
atom 0.0000000000000000 10.5199999999999978 0.0000000000000000 Ar
    velocity 0.3990350406732310 -1.0166182848528771 0.3806662380227958
atom 5.2599999999999989 10.5199999999999978 0.0000000000000000 Ar
    velocity -0.7551254725322384 0.6210244487419568 0.0287048865417598
atom 10.5199999999999978 10.5199999999999978 0.0000000000000000 Ar
    velocity -1.5668505639813866 -0.0421012839742571 0.7870127677048957
atom 15.7799999999999976 10.5199999999999978 0.0000000000000000 Ar
    velocity -0.3712310216504718 -0.6102929690417994 1.5751177188002934
atom 21.0399999999999956 10.5199999999999978 0.0000000000000000 Ar
    velocity -0.5373344806027496 -1.1608012959151464 -0.5347833400237815
atom 26.3000000000000007 10.5199999999999978 0.0000000000000000 Ar
    velocity -2.9745449561681538 0.2795403719521622 1.6438994593620944
atom 31.5599999999999952 10.5199999999999978 0.0000000000000000 Ar
    velocity 0.6895322404526206 0.8191605448929631 -1.2986211832238821
atom 36.8199999999999932 10.5199999999999978 0.0000000000000000 Ar
    velocity -0.0452310361523680 0.0762160034212674 0.6678739347069899
atom 42.0799999999999912 10.5199999999999978 0.0000000000000000 Ar
    velocity 1.3370242231140683 -0.2817034065351662 -0.4937364998895024
atom 47.3399999999999963 10.5199999999999978 0.0000000000000000 Ar
    velocity -0.4723382231524776 0.3187243493375395 -0.4094318085607611
atom 52.6000000000000014 10.5199999999999978 0.0000000000000000 Ar
    velocity -1.0057146865999680 0.0160765094772112 0.8549252156583873
atom 57.8599999999999923 10.5199999999999978 0.0000000000000000 Ar
    velocity 0.8717997562285541 -0.1103731099085967 0.7061552371553902
atom 63.1199999999999903 10.5199999999999978 0.0000000000000000 Ar
    velocity 0.2974308214980672 0.2205787020532430 0.4032507262411759
atom 68.3799999999999955 10.5199999999999978 0.0000000000000000 Ar
    velocity -0.6124736126251954 0.6097239098101591 -0.0404193649456875
atom 73.6399999999999864 10.5199999999999978 0.0000000000000000 Ar
    velocity 1.5674026199241833 -0.1139142281686629 -0.3427012409745328
atom 78.8999999999999915 10.5199999999999978 0.0000000000000000 Ar
    velocity -0.6432052080664197 0.3513134636616519 -0.3953448522735633
atom 84.1599999999999824 10.5199999999999978 0.0000000000000000 Ar
    velocity -0.0240595521451416 -0.5002520789056344 0.2846579385732714
atom 89.4199999999999733 10.5199999999999978 0.0000000000000000 Ar
    velocity -0.6078044176502470 -0.3776406328640217 0.5888143909777257
atom 0.0000000000000000 15.7799999999999976 0.0000000000000000 Ar
    velocity 1.6181855093684798 -0.0068789828348787 -0.6050196917751871
atom 5.2599999999999989 15.7799999999999976 0.0000000000000000 Ar
    velocity 1.3899131239252063 0.4270594757015421 0.2903576338541176
atom 10.5199999999999978 15.7799999999999976 0.0000000000000000 Ar
    velocity 0.7864749924449268 0.4747611080751398 -0.6815167823900476
atom 15.7799999999999976 15.7799999999999976 0.0000000000000000 Ar
    velocity -0.8693679404635652 0.2582863917927622 -1.4635794677374061
atom 21.0399999999999956 15.7799999999999976 0.0000000000000000 Ar
    velocity 1.2265365665070747 -0.2946550231812592 -0.0933454256259564
atom 26.3000000000000007 15.7799999999999976 0.0000000000000000 Ar
    velocity -0.9940679639660399 -0.2847293203107298 -0.0929129777976938
atom 31.5599999999999952 15.7799999999999976 0.0000000000000000 Ar
    velocity 1.5645737461551152 0.4148212186524886 -0.0965857297112720
atom 36.8199999999999932 15.7799999999999976 0.0000000000000000 Ar
    velocity -0.4029328464608801 0.3512145947374654 0.4018687014989845
atom 42.0799999999999912 15.7799999999999976 0.0000000000000000 Ar
    velocity -0.8078441954039225 0.4299524883869087 -0.1104174202098789
atom 47.3399999999999963 15.7799999999999976 0.0000000000000000 Ar
    velocity -0.3270635025089494 -0.1277742841503401 1.9792026017213962
atom 52.6000000000000014 15.7799999999999976 0.0000000000000000 Ar
    velocity 0.6724278797853100 -0.8739021110932297 -0.3110386177128375
atom 57.8599999999999923 15.7799999999999976 0.0000000000000000 Ar
    velocity 1.1610014718989963 0.5016237806653364 0.1657308595782415
atom 63.1199999999999903 15.7799999999999976 0.0000000000000000 Ar
    velocity -1.2919457091567739 -0.5761797673513991 1.0500397576582865
atom 68.3799999999999955 15.7799999999999976 0.0000000000000000 Ar
    velocity 0.2194912153368755 -1.7246901562922141 0.0389521734369932
atom 73.6399999999999864 15.7799999999999976 0.0000000000000000 Ar
    velocity 0.2919521488220650 -0.7308474662516671 1.8643389131911139
atom 78.8999999999999915 15.7799999999999976 0.0000000000000000 Ar
    velocity -0.9440492108923353 0.2100642388808094 -0.1805227596677708
atom 84.1599999999999824 15.7799999999999976 0.0000000000000000 Ar
    velocity 0.1546899477454833 1.9998778603265446 -2.2663966730976415
atom 89.4199999999999733 15.7799999999999976 0.0000000000000000 Ar
    velocity -0.5650688847369595 0.2860753657793431 0.7045547300009070
atom 0.0000000000000000 21.0399999999999956 0.0000000000000000 Ar
    velocity -0.6363443370126847 -0.0147390102690933 -0.5001600596921704
atom 5.2599999999999989 21.0399999999999956 0.0000000000000000 Ar
    velocity 0.4354107333445558 1.1115035526212018 -0.4152939633535059
atom 10.5199999999999978 21.0399999999999956 0.0000000000000000 Ar
    velocity -0.9026501165123091 0.7960178522754714 0.2952653497812566
atom 15.7799999999999976 21.0399999999999956 0.0000000000000000 Ar
    velocity 0.1577747585578096 -0.2032329349656317 -0.5226337311271270
atom 21.0399999999999956 21.0399999999999956 0.0000000000000000 Ar
    velocity 0.3605261150094941 0.4713791738404218 0.6523011539392133
atom 26.3000000000000007 21.0399999999999956 0.0000000000000000 Ar
    velocity 0.5029620498168018 -0.1231256534248028 0.1748053943971396
atom 31.5599999999999952 21.0399999999999956 0.0000000000000000 Ar
    velocity -0.1411903827899759 -0.1295023848064039 0.1791777415576810
atom 36.8199999999999932 21.0399999999999956 0.0000000000000000 Ar
    velocity 0.8369397314613223 -1.5944755640797810 1.4270003155875812
atom 42.0799999999999912 21.0399999999999956 0.0000000000000000 Ar
    velocity 0.5235601167482310 -1.5715792640865069 -0.8270718461361909
atom 47.3399999999999963 21.0399999999999956 0.0000000000000000 Ar
    velocity 0.7774973100218656 0.3653147877882255 0.1264515963280389
atom 52.6000000000000014 21.0399999999999956 0.0000000000000000 Ar
    velocity 0.4373320607126460 0.8265374032605636 -2.0579323182211584
atom 57.8599999999999923 21.0399999999999956 0.0000000000000000 Ar
    velocity 0.1865390993582138 0.3996909198022596 -0.3218965383763868
atom 63.1199999999999903 21.0399999999999956 0.0000000000000000 Ar
    velocity -0.5559497288018758 0.5159454710600816 -0.8877032556864410
atom 68.3799999999999955 21.0399999999999956 0.0000000000000000 Ar
    velocity -0.6068101796831189 1.4471845550929487 -0.6929178351265638
atom 73.6399999999999864 21.0399999999999956 0.0000000000000000 Ar
    velocity 1.4093839342779388 -0.9834605025861987 0.4216419052103197
atom 78.8999999999999915 21.0399999999999956 0.0000000000000000 Ar
    velocity -0.8342026786344421 0.1196045002613742 -0.1189182877066363
atom 84.1599999999999824 21.0399999999999956 0.0000000000000000 Ar
    velocity 0.0271748224954917 -0.3248426463481856 -0.7257849997272059
atom 89.4199999999999733 21.0399999999999956 0.0000000000000000 Ar
    velocity -0.4865307865938180 0.3910579560516031 1.0058845122176425
atom 0.0000000000000000 26.3000000000000007 0.0000000000000000 Ar
    velocity -0.7172296878455801 0.7898832914420605 0.1138531420694941
atom 5.2599999999999989 26.3000000000000007 0.0000000000000000 Ar
    velocity -1.6574791285199000 -0.1290137221712268 -1.0345292420124708
atom 10.5199999999999978 26.3000000000000007 0.0000000000000000 Ar
    velocity 0.6645692562461065 0.3374916731251113 -0.4751964243168731
atom 15.7799999999999976 26.3000000000000007 0.0000000000000000 Ar
    velocity -1.4475679379625424 -0.0970157408487588 0.7793149346478896
atom 21.0399999999999956 26.3000000000000007 0.0000000000000000 Ar
    velocity -0.8854246579172051 0.1893088238406519 -1.2163573411411641
atom 26.3000000000000007 26.3000000000000007 0.0000000000000000 Ar
    velocity 0.7602980372755034 -0.5297529612847122 -0.1034878270614448
atom 31.5599999999999952 26.3000000000000007 0.0000000000000000 Ar
    velocity -0.8285567352128793 0.8201064304352322 0.4010190446040938
atom 36.8199999999999932 26.3000000000000007 0.0000000000000000 Ar
    velocity -1.4206216779560090 -1.0791603178085325 -0.4696339265017286
atom 42.0799999999999912 26.3000000000000007 0.0000000000000000 Ar
    velocity -0.2369086606018610 0.9833370979020648 0.4716797760790824
atom 47.3399999999999963 26.3000000000000007 0.0000000000000000 Ar
    velocity 0.3739330385566352 0.6638726386143764 0.3606600863692472
atom 52.6000000000000014 26.3000000000000007 0.0000000000000000 Ar
    velocity 0.3181591406324185 -1.7270249729027392 -0.2764253128670361
atom 57.8599999999999923 26.3000000000000007 0.0000000000000000 Ar
    velocity 0.1102172920524895 -0.3974714291678297 -1.1361542462587269
atom 63.1199999999999903 26.3000000000000007 0.0000000000000000 Ar
    velocity -0.3076077350078667 -0.1646459859670703 -0.4482557698604983
atom 68.3799999999999955 26.3000000000000007 0.0000000000000000 Ar
    velocity 1.0389217900061214 0.0232291578607137 2.0632570311725948
atom 73.6399999999999864 26.3000000000000007 0.0000000000000000 Ar
    velocity 1.2044629247298517 0.3586266401436942 -0.2951837510062477
atom 78.8999999999999915 26.3000000000000007 0.0000000000000000 Ar
    velocity 0.9756589427254057 -0.2782241097216157 0.4692478100497343
atom 84.1599999999999824 26.3000000000000007 0.0000000000000000 Ar
    velocity -1.2746955728229774 0.6197547935667422 0.3375235405153325
atom 89.4199999999999733 26.3000000000000007 0.0000000000000000 Ar
    velocity -0.0096062380470309 1.2987134366876922 -0.9796682336746908
atom 0.0000000000000000 31.5599999999999952 0.0000000000000000 Ar
    velocity -1.3384133706002386 1.7949980509160617 -0.0844097170100951
atom 5.2599999999999989 31.5599999999999952 0.0000000000000000 Ar
    velocity -0.1430180404869622 0.2160035699550593 0.6128029535043866
atom 10.5199999999999978 31.5599999999999952 0.0000000000000000 Ar
    velocity 0.2540115382110064 0.3073848946891648 0.8897988993873199
atom 15.7799999999999976 31.5599999999999952 0.0000000000000000 Ar
    velocity 0.5323927089329564 -0.1582998969681988 0.9514721317737774
atom 21.0399999999999956 31.5599999999999952 0.0000000000000000 Ar
    velocity -1.8280251077908387 1.1264726628936519 0.2477461506557672
atom 26.3000000000000007 31.5599999999999952 0.0000000000000000 Ar
    velocity 0.8764679542984828 0.2499231377133920 -0.6516203094858637
atom 31.5599999999999952 31.5599999999999952 0.0000000000000000 Ar
    velocity 0.2086226633821477 0.5062068470891685 -0.3126467721054648
atom 36.8199999999999932 31.5599999999999952 0.0000000000000000 Ar
    velocity -0.0362642753709655 0.9792048906164367 -1.1068690182688008
atom 42.0799999999999912 31.5599999999999952 0.0000000000000000 Ar
    velocity -0.1989939600145580 0.7020241969110889 0.1365153212906259
atom 47.3399999999999963 31.5599999999999952 0.0000000000000000 Ar
    velocity -0.4383464113164970 0.0143582356939749 0.5137641363122817
atom 52.6000000000000014 31.5599999999999952 0.0000000000000000 Ar
    velocity -0.3259134827508021 -0.6568589163163252 -0.7132581251958031
atom 57.8599999999999923 31.5599999999999952 0.0000000000000000 Ar
    velocity 0.7165435986498464 -1.4164985551204274 0.7870881230629326
atom 63.1199999999999903 31.5599999999999952 0.0000000000000000 Ar
    velocity 0.5911768032938158 1.5455467235298583 1.5150728995961076
atom 68.3799999999999955 31.5599999999999952 0.0000000000000000 Ar
    velocity -0.6230272669072471 0.7900169365308133 -0.7071705199037722
atom 73.6399999999999864 31.5599999999999952 0.0000000000000000 Ar
    velocity -1.0448523706897106 0.3640401685338566 -1.3944952901872234
atom 78.8999999999999915 31.5599999999999952 0.0000000000000000 Ar
    velocity -0.7462999218220095 -0.3443629041512949 0.7987497642186230
atom 84.1599999999999824 31.5599999999999952 0.0000000000000000 Ar
    velocity 1.2174872363116855 -0.0456043743318157 0.5125019039027777
atom 89.4199999999999733 31.5599999999999952 0.0000000000000000 Ar
    velocity 0.2252468738456415 1.2078779950941090 0.1374915828756471
atom 0.0000000000000000 36.8199999999999932 0.0000000000000000 Ar
    velocity -0.3053832072806739 0.3298826787506109 1.3288864674069276
atom 5.2599999999999989 36.8199999999999932 0.0000000000000000 Ar
    velocity -0.5338708405726842 -0.1095455968426435 -0.7201370735622811
atom 10.5199999999999978 36.8199999999999932 0.0000000000000000 Ar
    velocity -0.9993645901893338 -0.0124878737945826 -0.9901063715419945
atom 15.7799999999999976 36.8199999999999932 0.0000000000000000 Ar
    velocity 0.2757083152265593 -0.9505111141032905 0.7348486550496913
atom 21.0399999999999956 36.8199999999999932 0.0000000000000000 Ar
    velocity 0.0692805618740856 -0.1040983861350483 -1.0111244131723114
atom 26.3000000000000007 36.8199999999999932 0.0000000000000000 Ar
    velocity 0.4092724169605751 -1.1456136149951295 -1.9413964941490445
atom 31.5599999999999952 36.8199999999999932 0.0000000000000000 Ar
    velocity 0.9059398555139182 0.3751007484804826 0.0164440072411784
atom 36.8199999999999932 36.8199999999999932 0.0000000000000000 Ar
    velocity 0.3987875685664781 0.0138506404329616 0.0040211831010925
atom 42.0799999999999912 36.8199999999999932 0.0000000000000000 Ar
    velocity 1.3189801201296851 0.3947113199784975 -0.3034892216432072
atom 47.3399999999999963 36.8199999999999932 0.0000000000000000 Ar
    velocity -1.2137068007775407 -0.2578461039200001 0.1370928553234216
atom 52.6000000000000014 36.8199999999999932 0.0000000000000000 Ar
    velocity -1.4807050747401826 -0.5378574607221015 -0.9900963865093798
atom 57.8599999999999923 36.8199999999999932 0.0000000000000000 Ar
    velocity 1.7485431507216003 1.2006241127169159 0.9537016421881016
atom 63.1199999999999903 36.8199999999999932 0.0000000000000000 Ar
    velocity -0.1853716248768811 -0.6868712076097345 1.3211536617915594
atom 68.3799999999999955 36.8199999999999932 0.0000000000000000 Ar
    velocity 0.2322576474093705 -0.0353658747123431 -0.8308935843686962
atom 73.6399999999999864 36.8199999999999932 0.0000000000000000 Ar
    velocity -1.5648903525220168 -0.0235268164537165 0.4782931824878684
atom 78.8999999999999915 36.8199999999999932 0.0000000000000000 Ar
    velocity 0.2427434155995004 0.0639278039717538 0.6056176086624572
atom 84.1599999999999824 36.8199999999999932 0.0000000000000000 Ar
    velocity 0.4302807348869865 0.8639685427149693 -1.2000373326514009
atom 89.4199999999999733 36.8199999999999932 0.0000000000000000 Ar
    velocity -0.0707550852522533 -0.2136570554915992 0.1878791680416111
atom 0.0000000000000000 42.0799999999999912 0.0000000000000000 Ar
    velocity 0.4377363244977387 -0.5473580010453059 -0.4219717112542548
atom 5.2599999999999989 42.0799999999999912 0.0000000000000000 Ar
    velocity -1.1665487535976427 0.9675310933637690 -0.2490469703322619
atom 10.5199999999999978 42.0799999999999912 0.0000000000000000 Ar
    velocity 0.4687399437416780 1.2623027685023536 -0.9139693478023961
atom 15.7799999999999976 42.0799999999999912 0.0000000000000000 Ar
    velocity -1.1117620629914875 0.6684991180417189 -0.2736173036520235
atom 21.0399999999999956 42.0799999999999912 0.0000000000000000 Ar
    velocity -0.6009898158830193 -0.0595262384546668 1.5630643658773320
atom 26.3000000000000007 42.0799999999999912 0.0000000000000000 Ar
    velocity 1.1558793331584860 -0.0068953495676110 -1.9192432021335410
atom 31.5599999999999952 42.0799999999999912 0.0000000000000000 Ar
    velocity -0.4800484593009153 2.1050097083015622 0.0282534390405560
atom 36.8199999999999932 42.0799999999999912 0.0000000000000000 Ar
    velocity -0.3020989394213540 -0.7324386246670447 0.8893653284239410
atom 42.0799999999999912 42.0799999999999912 0.0000000000000000 Ar
    velocity 0.0838908884809451 -0.1304051526049785 0.6359029843532252
atom 47.3399999999999963 42.0799999999999912 0.0000000000000000 Ar
    velocity 0.4828767437343847 1.5071931896597226 0.0163871556272033
atom 52.6000000000000014 42.0799999999999912 0.0000000000000000 Ar
    velocity 0.8273822753772283 0.0664108952974956 1.8484635023856657
atom 57.8599999999999923 42.0799999999999912 0.0000000000000000 Ar
    velocity 0.4026635186317054 0.2072429297424041 -0.7894128041871308
atom 63.1199999999999903 42.0799999999999912 0.0000000000000000 Ar
    velocity 0.5128102710278846 0.6936254476666698 0.8939689126156071
atom 68.3799999999999955 42.0799999999999912 0.0000000000000000 Ar
    velocity -0.9675315950932751 -0.6707099867815693 -0.2892028941218227
atom 73.6399999999999864 42.0799999999999912 0.0000000000000000 Ar
    velocity -0.2883964312498664 -0.6468721769356602 0.7423077928279397
atom 78.8999999999999915 42.0799999999999912 0.0000000000000000 Ar
    velocity -0.0936784070976473 -0.3905212799956953 1.4454061191221488
atom 84.1599999999999824 42.0799999999999912 0.0000000000000000 Ar
    velocity 0.4091066916165212 0.2628251850802345 -0.1911028135642021
atom 89.4199999999999733 42.0799999999999912 0.0000000000000000 Ar
    velocity 0.4418032476508334 -0.3445885097253884 0.3131861064362112
atom 0.0000000000000000 47.3399999999999963 0.0000000000000000 Ar
    velocity -0.4491180707471352 1.8368545553990534 -0.2593047202977878
atom 5.2599999999999989 47.3399999999999963 0.0000000000000000 Ar
    velocity -1.8520775408906236 -1.0446648111022570 -0.2252355710990532
atom 10.5199999999999978 47.3399999999999963 0.0000000000000000 Ar
    velocity 0.8689280474722310 -0.9211890570369652 1.1763532508028447
atom 15.7799999999999976 47.3399999999999963 0.0000000000000000 Ar
    velocity -0.9766832786739503 -0.0515754089376906 -0.0041109255588427
atom 21.0399999999999956 47.3399999999999963 0.0000000000000000 Ar
    velocity -0.6823904670942585 0.2264321657110718 -0.1372570026115965
atom 26.3000000000000007 47.3399999999999963 0.0000000000000000 Ar
    velocity -0.3363230665913367 -1.1803790769269447 0.6327774741602826
atom 31.5599999999999952 47.3399999999999963 0.0000000000000000 Ar
    velocity -0.7698662205371597 1.2455136892865435 -0.3987631780994444
atom 36.8199999999999932 47.3399999999999963 0.0000000000000000 Ar
    velocity -0.3197112086502962 0.4002380497796388 0.2516626455525755
atom 42.0799999999999912 47.3399999999999963 0.0000000000000000 Ar
    velocity -0.2269882072104251 -0.1267342346504814 0.3956446851639797
atom 47.3399999999999963 47.3399999999999963 0.0000000000000000 Ar
    velocity -0.9751634746996442 -0.1354086777996848 -0.6987094106883194
atom 52.6000000000000014 47.3399999999999963 0.0000000000000000 Ar
    velocity 0.4793540700327283 -1.8704036634955610 0.5288473885175561
atom 57.8599999999999923 47.3399999999999963 0.0000000000000000 Ar
    velocity 1.2973126559828156 -0.7206209190672140 0.2398488184959405
atom 63.1199999999999903 47.3399999999999963 0.0000000000000000 Ar
    velocity -0.5867055927978758 -0.9036066300714723 -0.8325798641865990
atom 68.3799999999999955 47.3399999999999963 0.0000000000000000 Ar
    velocity 1.4844572248959103 -0.0385862395130038 0.0988249719984040
atom 73.6399999999999864 47.3399999999999963 0.0000000000000000 Ar
    velocity -0.6232009568852708 -1.5667459507827983 -0.5044609135814748
atom 78.8999999999999915 47.3399999999999963 0.0000000000000000 Ar
    velocity 0.0539310407554333 -0.3052277059130399 -1.6102312518140871
atom 84.1599999999999824 47.3399999999999963 0.0000000000000000 Ar
    velocity 0.1790045890794693 0.3699595717509015 0.2494623290823401
atom 89.4199999999999733 47.3399999999999963 0.0000000000000000 Ar
    velocity 0.9689527773775501 -0.8028759695188953 -0.3831628338286822
atom 0.0000000000000000 52.6000000000000014 0.0000000000000000 Ar
    velocity 0.0295190887365884 0.5532393304338089 0.6060288166603641
atom 5.2599999999999989 52.6000000000000014 0.0000000000000000 Ar
    velocity 0.1299662804745772 -0.4628684289175438 0.6102992502757129
atom 10.5199999999999978 52.6000000000000014 0.0000000000000000 Ar
    velocity 0.4853713241673056 0.8599916265292951 -1.4448916298115062
atom 15.7799999999999976 52.6000000000000014 0.0000000000000000 Ar
    velocity -0.6472926028145939 0.8405155312219569 -2.1523698921713148
atom 21.0399999999999956 52.6000000000000014 0.0000000000000000 Ar
    velocity 0.0408564999248154 -0.1409919914598397 -1.0991519036166193
atom 26.3000000000000007 52.6000000000000014 0.0000000000000000 Ar
    velocity 0.4816101448018989 0.0576084834172717 -0.1381969225062333
atom 31.5599999999999952 52.6000000000000014 0.0000000000000000 Ar
    velocity -0.6894705103660970 -0.3640172637850891 0.5318966190129412
atom 36.8199999999999932 52.6000000000000014 0.0000000000000000 Ar
    velocity -0.3076390471012102 -1.0170893467016835 -0.8919259024029462
atom 42.0799999999999912 52.6000000000000014 0.0000000000000000 Ar
    velocity -0.6037513895617587 -0.0509478015157114 0.2715986608249982
atom 47.3399999999999963 52.6000000000000014 0.0000000000000000 Ar
    velocity 0.3793344645583810 -1.1720726881935928 -0.0020362335668742
atom 52.6000000000000014 52.6000000000000014 0.0000000000000000 Ar
    velocity 0.7963612102310565 0.4668343345529045 0.9478892169534272
atom 57.8599999999999923 52.6000000000000014 0.0000000000000000 Ar
    velocity -0.7960400913081794 0.3838200311834788 1.4417375110227091
atom 63.1199999999999903 52.6000000000000014 0.0000000000000000 Ar
    velocity 1.0643445984714366 0.3182740548997428 0.0061735653944484
atom 68.3799999999999955 52.6000000000000014 0.0000000000000000 Ar
    velocity -0.0688414029658702 0.6251791087711170 0.5683867467822833
atom 73.6399999999999864 52.6000000000000014 0.0000000000000000 Ar
    velocity -0.4252922071393540 -0.5198493520499549 -0.7823735954324160
atom 78.8999999999999915 52.6000000000000014 0.0000000000000000 Ar
    velocity -0.3465812418646917 -0.0860720994325626 0.6076930618343883
atom 84.1599999999999824 52.6000000000000014 0.0000000000000000 Ar
    velocity -0.9312444308618171 0.9539476093757328 -1.9695603755685955
atom 89.4199999999999733 52.6000000000000014 0.0000000000000000 Ar
    velocity -0.7336640560283318 -1.4051042546353529 -0.3327563296723877
atom 0.0000000000000000 57.8599999999999923 0.0000000000000000 Ar
    velocity -0.0349967962823561 0.3478511594603201 1.2842623152146062
atom 5.2599999999999989 57.8599999999999923 0.0000000000000000 Ar
    velocity 1.3825323333742390 0.2661857984088556 -1.2857796666568755
atom 10.5199999999999978 57.8599999999999923 0.0000000000000000 Ar
    velocity 0.2834422469418973 -0.9413027590256227 -1.4700309191765808
atom 15.7799999999999976 57.8599999999999923 0.0000000000000000 Ar
    velocity -0.4850151926475674 -0.4596551309223786 0.7869572007170917
atom 21.0399999999999956 57.8599999999999923 0.0000000000000000 Ar
    velocity -0.3131276685359435 1.4031047502088438 -0.3952455833801272
atom 26.3000000000000007 57.8599999999999923 0.0000000000000000 Ar
    velocity -0.6031005122395882 -2.3616049796934511 -0.7783748450730530
atom 31.5599999999999952 57.8599999999999923 0.0000000000000000 Ar
    velocity 0.5797340734264047 -0.0483020514004771 0.0739887805436464
atom 36.8199999999999932 57.8599999999999923 0.0000000000000000 Ar
    velocity 0.4490043267478793 0.5148819018411221 -0.2138035002091793
atom 42.0799999999999912 57.8599999999999923 0.0000000000000000 Ar
    velocity 0.9822706814402924 -0.5171634166993395 -0.6627842394106240
atom 47.3399999999999963 57.8599999999999923 0.0000000000000000 Ar
    velocity 1.4803009659917736 0.4816817304054009 -1.1978748580883731
atom 52.6000000000000014 57.8599999999999923 0.0000000000000000 Ar
    velocity 0.2842700192488184 0.2292279743180904 0.3007350733472084
atom 57.8599999999999923 57.8599999999999923 0.0000000000000000 Ar
    velocity 0.0952779100145200 0.1568632494136864 -0.0528955101075386
atom 63.1199999999999903 57.8599999999999923 0.0000000000000000 Ar
    velocity -0.2867304819002406 -0.4475912145117997 0.1097288362807167
atom 68.3799999999999955 57.8599999999999923 0.0000000000000000 Ar
    velocity -0.6846655867105145 0.6110949567900008 0.0535223378799874
atom 73.6399999999999864 57.8599999999999923 0.0000000000000000 Ar
    velocity -0.1980770352342535 -1.4145411029963799 -0.7084502360513594
atom 78.8999999999999915 57.8599999999999923 0.0000000000000000 Ar