#=======================================================
# FHI-aims file: argon_10976_30k.in
# Created using the Atomic Simulation Environment (ASE)
# Tue Jun 15 19:24:58 2021
#=======================================================
lattice_vector 73.6400000000000006 0.0000000000000000 0.0000000000000000 
lattice_vector 0.0000000000000000 73.6400000000000006 0.0000000000000000 
lattice_vector 0.0000000000000000 0.0000000000000000 73.6400000000000006 
atom 0.0000000000000000 0.0000000000000000 0.0000000000000000 Ar
    velocity 0.3615703735443108 -1.6866493001645979 2.0111641722522093
atom 5.2599999999999998 0.0000000000000000 0.0000000000000000 Ar
    velocity -1.4276802811989167 -1.2677838232966958 -1.0963136310817805
atom 10.5199999999999996 0.0000000000000000 0.0000000000000000 Ar
    velocity 0.5753357187630904 -0.7402847284594809 -0.4783858660918168
atom 15.7799999999999994 0.0000000000000000 0.0000000000000000 Ar
    velocity -0.1013226601887550 0.5377173998587130 -1.3449406654546736
atom 21.0399999999999991 0.0000000000000000 0.0000000000000000 Ar
    velocity -0.8803677060042328 0.1824223828897654 1.7443343552867274
atom 26.2999999999999972 0.0000000000000000 0.0000000000000000 Ar
    velocity 0.3095903097969619 0.6236894592069541 0.7821182391500040
atom 31.5599999999999987 0.0000000000000000 0.0000000000000000 Ar
    velocity -0.0573221627091455 0.7214872796118011 0.5355901773669108
atom 36.8200000000000003 0.0000000000000000 0.0000000000000000 Ar
    velocity -0.9270879708621766 -0.7387733772798261 -0.3235924491358962
atom 42.0799999999999983 0.0000000000000000 0.0000000000000000 Ar
    velocity -0.8894856004058954 -0.4975450145480200 -1.7970750532381230
atom 47.3399999999999963 0.0000000000000000 0.0000000000000000 Ar
    velocity 0.6526392197245201 0.5237549190084296 -0.1736409090143722
atom 52.5999999999999943 0.0000000000000000 0.0000000000000000 Ar
    velocity -0.0757130055586714 1.0302266289277582 -0.2630598198145084
atom 57.8599999999999994 0.0000000000000000 0.0000000000000000 Ar
    velocity 1.1906767489338945 -1.0466511420798748 1.6499239032581916
atom 63.1199999999999974 0.0000000000000000 0.0000000000000000 Ar
    velocity 0.6897689784934106 -0.1099036550905777 0.1365796946739294
atom 68.3800000000000097 0.0000000000000000 0.0000000000000000 Ar
    velocity -0.8646115283351650 -0.4405491885355397 -1.2270837285651932
atom 0.0000000000000000 5.2599999999999998 0.0000000000000000 Ar
    velocity -1.9326272034246541 0.5348269523433349 -0.0103775493027535
atom 5.2599999999999998 5.2599999999999998 0.0000000000000000 Ar
    velocity -0.3889245457411700 -0.1192743684455259 -0.5006909906531637
atom 10.5199999999999996 5.2599999999999998 0.0000000000000000 Ar
    velocity 0.1225949995696667 -0.6970713977929150 1.2411462378637046
atom 15.7799999999999994 5.2599999999999998 0.0000000000000000 Ar
    velocity -0.4231788994133258 -0.6395938186508828 -0.9966348625825264
atom 21.0399999999999991 5.2599999999999998 0.0000000000000000 Ar
    velocity -0.1860491133023217 -1.3618296135521892 1.1359546799481173
atom 26.2999999999999972 5.2599999999999998 0.0000000000000000 Ar
    velocity -0.6510240165530621 -0.8083139628227973 -0.3036613910505243
atom 31.5599999999999987 5.2599999999999998 0.0000000000000000 Ar
    velocity -0.1955584842419131 0.9290940412248928 -0.8674962259120583
atom 36.8200000000000003 5.2599999999999998 0.0000000000000000 Ar
    velocity -1.0354806022795078 0.1520499753086930 -0.3312871570260206
atom 42.0799999999999983 5.2599999999999998 0.0000000000000000 Ar
    velocity -0.9535089229598758 -0.9405178488187432 -0.8431764267217916
atom 47.3399999999999963 5.2599999999999998 0.0000000000000000 Ar
    velocity -0.2497638149345905 1.1541859071910197 0.6235358709067247
atom 52.5999999999999943 5.2599999999999998 0.0000000000000000 Ar
    velocity -0.1419632815438389 -0.0063140295254594 1.3265545340193179
atom 57.8599999999999994 5.2599999999999998 0.0000000000000000 Ar
    velocity -0.4753675468942170 0.9388145533258336 -0.7960228835167050
atom 63.1199999999999974 5.2599999999999998 0.0000000000000000 Ar
    velocity 0.3018804941788072 -0.2795852713324430 -0.2512772155900155
atom 68.3800000000000097 5.2599999999999998 0.0000000000000000 Ar
    velocity -0.9279200929366844 0.2189921911905449 0.5821150051936044
atom 0.0000000000000000 10.5199999999999996 0.0000000000000000 Ar
    velocity 0.0178861300395299 -0.8097000140732714 -0.9956422858027927
atom 5.2599999999999998 10.5199999999999996 0.0000000000000000 Ar
    velocity 0.5541845441884121 0.8255593569484323 -0.1535873588277315
atom 10.5199999999999996 10.5199999999999996 0.0000000000000000 Ar
    velocity -0.3746133934849494 0.9520877773233929 -0.5205200065664601
atom 15.7799999999999994 10.5199999999999996 0.0000000000000000 Ar
    velocity -0.1277587057267477 0.3993898956362802 -1.1029316011346793
atom 21.0399999999999991 10.5199999999999996 0.0000000000000000 Ar
    velocity 0.6575314232871083 1.5349207773435511 -0.2415138812114294
atom 26.2999999999999972 10.5199999999999996 0.0000000000000000 Ar
    velocity -0.9673437991157576 -0.7278248456977688 -0.1846982227978676
atom 31.5599999999999987 10.5199999999999996 0.0000000000000000 Ar
    velocity -0.8062471543146337 -0.9805870593730117 0.4457380825745388
atom 36.8200000000000003 10.5199999999999996 0.0000000000000000 Ar
    velocity -0.9083239961584038 0.5339316389500282 -0.5814529138650053
atom 42.0799999999999983 10.5199999999999996 0.0000000000000000 Ar
    velocity -0.7748823312162896 -1.6573053279858554 -0.3353047187364390
atom 47.3399999999999963 10.5199999999999996 0.0000000000000000 Ar
    velocity 2.2017235713456342 -0.3456109180384027 0.7261452247313572
atom 52.5999999999999943 10.5199999999999996 0.0000000000000000 Ar
    velocity -1.3015133073355996 -0.9369464623128400 -0.1918315134037695
atom 57.8599999999999994 10.5199999999999996 0.0000000000000000 Ar
    velocity -0.9531659374830790 0.3438587633080653 0.1888642972009697
atom 63.1199999999999974 10.5199999999999996 0.0000000000000000 Ar
    velocity -0.9740396134953979 0.7415793637128717 -0.3108595115161993
atom 68.3800000000000097 10.5199999999999996 0.0000000000000000 Ar
    velocity 1.0580936773769454 0.5401875938983630 1.1491108882681771
atom 0.0000000000000000 15.7799999999999994 0.0000000000000000 Ar
    velocity -0.8659266091927649 1.5246161432589818 -1.6052590983959059
atom 5.2599999999999998 15.7799999999999994 0.0000000000000000 Ar
    velocity -0.0221897094350296 1.2758160313587552 0.6291148522789390
atom 10.5199999999999996 15.7799999999999994 0.0000000000000000 Ar
    velocity 0.3748792877946174 0.3578702420493157 0.4534715969001994
atom 15.7799999999999994 15.7799999999999994 0.0000000000000000 Ar
    velocity -1.1058183844956455 -0.8864451411686735 -0.2483933679464544
atom 21.0399999999999991 15.7799999999999994 0.0000000000000000 Ar
    velocity -0.6134214130837813 -0.3616965198433861 0.7122468925507082
atom 26.2999999999999972 15.7799999999999994 0.0000000000000000 Ar
    velocity 1.0877160197855205 0.3551754017498414 0.3327083065123993
atom 31.5599999999999987 15.7799999999999994 0.0000000000000000 Ar
    velocity -0.4810755230698528 -1.2527299169770567 -0.1045372502514934
atom 36.8200000000000003 15.7799999999999994 0.0000000000000000 Ar
    velocity -0.4773018983774146 -0.9639547414031576 -1.3601669870441346
atom 42.0799999999999983 15.7799999999999994 0.0000000000000000 Ar
    velocity 0.1315991269795035 -0.6075801268790837 -0.9824990280497483
atom 47.3399999999999963 15.7799999999999994 0.0000000000000000 Ar
    velocity -0.3364367187900306 1.1618889044248550 0.5420295560477185
atom 52.5999999999999943 15.7799999999999994 0.0000000000000000 Ar
    velocity 0.0542933855088881 0.0510433504625597 -1.7378867801714761
atom 57.8599999999999994 15.7799999999999994 0.0000000000000000 Ar
    velocity -0.4002687400110000 -0.4695541523893033 0.2956829949811906
atom 63.1199999999999974 15.7799999999999994 0.0000000000000000 Ar
    velocity -0.5923016906792019 -0.0037782075374569 0.8134342507069799
atom 68.3800000000000097 15.7799999999999994 0.0000000000000000 Ar
    velocity -1.3662517964823504 -0.7217909791519282 -1.2259162323122743
atom 0.0000000000000000 21.0399999999999991 0.0000000000000000 Ar
    velocity -0.4814599332260411 1.1507017288679691 0.7719835634692498
atom 5.2599999999999998 21.0399999999999991 0.0000000000000000 Ar
    velocity 0.7278892107030646 -0.2488833305029310 2.2584686988121323
atom 10.5199999999999996 21.0399999999999991 0.0000000000000000 Ar
    velocity -1.0962849713829790 -0.5537706071948406 -0.6318841157237496
atom 15.7799999999999994 21.0399999999999991 0.0000000000000000 Ar
    velocity 1.1594009656892388 0.9600451597075373 1.0788205564357665
atom 21.0399999999999991 21.0399999999999991 0.0000000000000000 Ar
    velocity 1.6311681853803111 0.1395767887802335 -0.4210657937402026
atom 26.2999999999999972 21.0399999999999991 0.0000000000000000 Ar
    velocity -0.0621102342648033 0.2487434388596369 -1.1471657301319549
atom 31.5599999999999987 21.0399999999999991 0.0000000000000000 Ar
    velocity 0.6862409664633413 -0.6143332784394135 1.9645297457045006
atom 36.8200000000000003 21.0399999999999991 0.0000000000000000 Ar
    velocity -0.1326868928937378 -0.4695320698001041 0.9626370397733123
atom 42.0799999999999983 21.0399999999999991 0.0000000000000000 Ar
    velocity -1.1724897051139989 -0.5271957640680299 1.4167493950723034
atom 47.3399999999999963 21.0399999999999991 0.0000000000000000 Ar
    velocity 0.0500790759266732 0.9403942311634665 -1.2423050850401094
atom 52.5999999999999943 21.0399999999999991 0.0000000000000000 Ar
    velocity 1.0996186396429419 0.8683430613619006 -0.4156876971341682
atom 57.8599999999999994 21.0399999999999991 0.0000000000000000 Ar
    velocity -0.0451726432093494 -0.0581612612536693 1.3158351108590023
atom 63.1199999999999974 21.0399999999999991 0.0000000000000000 Ar
    velocity -0.3459033009580851 1.5982392024750109 -0.4007777636721203
atom 68.3800000000000097 21.0399999999999991 0.0000000000000000 Ar
    velocity 0.7959343783204651 1.2061526463325885 -1.9947458978673476
atom 0.0000000000000000 26.2999999999999972 0.0000000000000000 Ar
    velocity 0.7022580870662979 0.8790245131846257 -0.4447518103546992
atom 5.2599999999999998 26.2999999999999972 0.0000000000000000 Ar
    velocity 0.1823857551356092 -0.8844433318124797 -0.2565238165710530
atom 10.5199999999999996 26.2999999999999972 0.0000000000000000 Ar
    velocity 1.9303447759489658 -0.6887892127401202 -1.1646129492941111
atom 15.7799999999999994 26.2999999999999972 0.0000000000000000 Ar
    velocity -0.5022055798393391 0.0890954636161168 0.6484898808279100
atom 21.0399999999999991 26.2999999999999972 0.0000000000000000 Ar
    velocity 1.0967003290863282 0.0085540488890347 0.7005922785107096
atom 26.2999999999999972 26.2999999999999972 0.0000000000000000 Ar
    velocity -0.0044095594555523 0.1702179765096361 1.9165361120008837
atom 31.5599999999999987 26.2999999999999972 0.0000000000000000 Ar
    velocity 0.2894120503886096 0.2075162492757732 -0.8742985377703428
atom 36.8200000000000003 26.2999999999999972 0.0000000000000000 Ar
    velocity -0.1363724442051670 -1.9437461909888518 0.2519198108696480
atom 42.0799999999999983 26.2999999999999972 0.0000000000000000 Ar
    velocity 0.8757650376661776 0.2386379887724300 -0.6836181439926093
atom 47.3399999999999963 26.2999999999999972 0.0000000000000000 Ar
    velocity 0.7149809411641987 1.2240700316975697 0.3237242986764823
atom 52.5999999999999943 26.2999999999999972 0.0000000000000000 Ar
    velocity -0.6911632850723635 0.9560285325435126 -0.3870391517035798
atom 57.8599999999999994 26.2999999999999972 0.0000000000000000 Ar
    velocity 1.1029825053636220 -0.6933360076930879 -0.6795952322933996
atom 63.1199999999999974 26.2999999999999972 0.0000000000000000 Ar
    velocity -0.0341314887076494 -1.0910164112854726 0.7556051517191668
atom 68.3800000000000097 26.2999999999999972 0.0000000000000000 Ar
    velocity -1.9983469315945142 -0.1664973473028669 1.6015428779036103
atom 0.0000000000000000 31.5599999999999987 0.0000000000000000 Ar
    velocity 0.0875588761941717 -1.3033575315133492 2.1483498942031112
atom 5.2599999999999998 31.5599999999999987 0.0000000000000000 Ar
    velocity 1.0356030489831061 0.5162492718510218 -0.5729831818020309
atom 10.5199999999999996 31.5599999999999987 0.0000000000000000 Ar
    velocity -0.2231677074589254 0.4087617921019947 -0.9119218614136504
atom 15.7799999999999994 31.5599999999999987 0.0000000000000000 Ar
    velocity -1.7885896488272195 0.8500199113434201 1.5245604363413270
atom 21.0399999999999991 31.5599999999999987 0.0000000000000000 Ar
    velocity -1.2368220382876733 -0.9059054555340926 -0.1363659823823606
atom 26.2999999999999972 31.5599999999999987 0.0000000000000000 Ar
    velocity -0.6130842200774704 -0.6885715060616552 0.6401535985405687
atom 31.5599999999999987 31.5599999999999987 0.0000000000000000 Ar
    velocity 2.0300211023133352 -0.6359302179899101 -0.5503422485410014
atom 36.8200000000000003 31.5599999999999987 0.0000000000000000 Ar
    velocity 0.7582256343040972 1.3965779893426291 -1.2771696684461660
atom 42.0799999999999983 31.5599999999999987 0.0000000000000000 Ar
    velocity 0.0998806750912612 -1.1020778366060180 -1.9379787478943178
atom 47.3399999999999963 31.5599999999999987 0.0000000000000000 Ar
    velocity -1.1432162504697634 -0.5473737155433399 -0.0826558458814576
atom 52.5999999999999943 31.5599999999999987 0.0000000000000000 Ar
    velocity 0.6698672070495900 0.2512347062014932 -0.1382571434893614
atom 57.8599999999999994 31.5599999999999987 0.0000000000000000 Ar
    velocity 0.1606563160156617 0.2244453431830851 -0.4833893576732616
atom 63.1199999999999974 31.5599999999999987 0.0000000000000000 Ar
    velocity 0.3631797964867456 0.9840093422062587 0.6365483823361728
atom 68.3800000000000097 31.5599999999999987 0.0000000000000000 Ar
    velocity 0.5563304471878150 -0.8531063581922791 -1.0189645544168620
atom 0.0000000000000000 36.8200000000000003 0.0000000000000000 Ar
    velocity -0.4056452722738271 -0.3581721120443955 -0.2905762521857609
atom 5.2599999999999998 36.8200000000000003 0.0000000000000000 Ar
    velocity -0.9093845742886039 -0.0473978255263421 0.4820370401977181
atom 10.5199999999999996 36.8200000000000003 0.0000000000000000 Ar
    velocity 0.6386140491791759 0.3447669589748633 0.3173900070276500
atom 15.7799999999999994 36.8200000000000003 0.0000000000000000 Ar
    velocity 2.0362243810426581 -0.7547194514212379 0.5687614573567700
atom 21.0399999999999991 36.8200000000000003 0.0000000000000000 Ar
    velocity -1.6418349348602588 0.0063041173628046 -0.4814749135808274
atom 26.2999999999999972 36.8200000000000003 0.0000000000000000 Ar
    velocity -0.1691628860691193 -1.6721325606006068 -1.3351138983365403
atom 31.5599999999999987 36.8200000000000003 0.0000000000000000 Ar
    velocity 0.1549003454527029 -0.3434304733105051 -1.0691714418934324
atom 36.8200000000000003 36.8200000000000003 0.0000000000000000 Ar
    velocity 0.5467258246311152 0.2525376855485595 -0.6029496524375552
atom 42.0799999999999983 36.8200000000000003 0.0000000000000000 Ar
    velocity -1.0351298347319831 0.2716427699628810 1.4435210736994002
atom 47.3399999999999963 36.8200000000000003 0.0000000000000000 Ar
    velocity 0.8792219662241352 0.2991382548928902 0.5302705198319330
atom 52.5999999999999943 36.8200000000000003 0.0000000000000000 Ar
    velocity -0.7072534544037671 0.3266261450152343 0.2386819567258445
atom 57.8599999999999994 36.8200000000000003 0.0000000000000000 Ar
    velocity 0.2494067420198443 -0.2505147519123258 -0.6518545194913303
atom 63.1199999999999974 36.8200000000000003 0.0000000000000000 Ar
    velocity 0.1705914487657824 -0.0957297482089910 -0.2653319344377302
atom 68.3800000000000097 36.8200000000000003 0.0000000000000000 Ar
    velocity -0.0747217846999542 0.7312630196838471 0.3004058992736406
atom 0.0000000000000000 42.0799999999999983 0.0000000000000000 Ar
    velocity -0.2724837236346728 1.5793321574595447 -1.5716025418127979
atom 5.2599999999999998 42.0799999999999983 0.0000000000000000 Ar
    velocity -0.5467180161005403 1.0613481728330894 -0.1333302431235009
atom 10.5199999999999996 42.0799999999999983 0.0000000000000000 Ar
    velocity 0.3153999564956491 0.3328789421773360 -0.4599591447517728
atom 15.7799999999999994 42.0799999999999983 0.0000000000000000 Ar
    velocity -0.8727541856510509 -0.4224285080064726 0.2144657035738438
atom 21.0399999999999991 42.0799999999999983 0.0000000000000000 Ar
    velocity -0.7928994116412602 -0.1445086103917927 0.9136540161713359
atom 26.2999999999999972 42.0799999999999983 0.0000000000000000 Ar
    velocity 0.4618116881351119 -1.4432930462651705 0.6560443050696778
atom 31.5599999999999987 42.0799999999999983 0.0000000000000000 Ar
    velocity -1.9726150584052855 0.1707542318519706 1.0040190247371772
atom 36.8200000000000003 42.0799999999999983 0.0000000000000000 Ar
    velocity -1.5419463353583653 0.6901415874828740 0.6097202232142294
atom 42.0799999999999983 42.0799999999999983 0.0000000000000000 Ar
    velocity 0.1047768252894037 0.2099472302829470 -0.7000991321421375
atom 47.3399999999999963 42.0799999999999983 0.0000000000000000 Ar
    velocity -1.0634864134381883 0.6465061919165118 0.7913661790029375
atom 52.5999999999999943 42.0799999999999983 0.0000000000000000 Ar
    velocity 0.1428335167845427 0.2539619906625092 -1.0015638281676582
atom 57.8599999999999994 42.0799999999999983 0.0000000000000000 Ar
    velocity 0.7004363247385044 0.9489430946828724 -1.0290704389295344
atom 63.1199999999999974 42.0799999999999983 0.0000000000000000 Ar
    velocity -0.2093334187159738 0.2753014133284609 -0.5351473150928064
atom 68.3800000000000097 42.0799999999999983 0.0000000000000000 Ar
    velocity 0.2627185570593489 1.3041589691031370 -0.9183001375282485
atom 0.0000000000000000 47.3399999999999963 0.0000000000000000 Ar
    velocity 0.2234345042790607 -0.3130698298234023 0.2996570754824358
atom 5.2599999999999998 47.3399999999999963 0.0000000000000000 Ar
    velocity -0.9882396251373126 -1.5487073457475515 -0.3459914818523869
atom 10.5199999999999996 47.3399999999999963 0.0000000000000000 Ar
    velocity -0.5398150938052515 0.6782210593381617 1.0787091076581625
atom 15.7799999999999994 47.3399999999999963 0.0000000000000000 Ar
    velocity 0.0267551300601878 0.2743410947157902 -0.5102460894393588
atom 21.0399999999999991 47.3399999999999963 0.0000000000000000 Ar
    velocity -0.6797518661386539 1.5574479820628111 0.3008575019388759
atom 26.2999999999999972 47.3399999999999963 0.0000000000000000 Ar
    velocity 0.4195207319857815 0.3695478888041152 -0.2539770348052461
atom 31.5599999999999987 47.3399999999999963 0.0000000000000000 Ar
    velocity -0.8533289700030077 0.1100561604756623 -0.7027934260643359
atom 36.8200000000000003 47.3399999999999963 0.0000000000000000 Ar
    velocity 0.0400221105136845 -0.6128996657810316 -0.7909773696245486
atom 42.0799999999999983 47.3399999999999963 0.0000000000000000 Ar
    velocity 1.0087934867187045 -1.1002891045194567 0.1975322151809797
atom 47.3399999999999963 47.3399999999999963 0.0000000000000000 Ar
    velocity 0.5842399073800233 -0.3939882495720424 1.0113462862863605
atom 52.5999999999999943 47.3399999999999963 0.0000000000000000 Ar
    velocity -0.3567042331379060 0.5555646646368443 0.8877544395446081
atom 57.8599999999999994 47.3399999999999963 0.0000000000000000 Ar
    velocity 0.5211438207297563 0.1840387423592165 -0.2119590904710076
atom 63.1199999999999974 47.3399999999999963 0.0000000000000000 Ar
    velocity 0.6171433377226982 0.1984076493812360 -0.3857947081765150
atom 68.3800000000000097 47.3399999999999963 0.0000000000000000 Ar
    velocity -0.4205554042631658 1.6131957386978459 -1.2613435869261054
atom 0.0000000000000000 52.5999999999999943 0.0000000000000000 Ar
    velocity 1.2476456430235785 1.1348674235143337 0.0480817315388943
atom 5.2599999999999998 52.5999999999999943 0.0000000000000000 Ar
    velocity 1.0114928796995011 1.9457450016682698 1.6879552392743864
atom 10.5199999999999996 52.5999999999999943 0.0000000000000000 Ar
    velocity -0.6076956386510621 1.3818265608448086 1.2584464596018083
atom 15.7799999999999994 52.5999999999999943 0.0000000000000000 Ar
    velocity 0.3803397239583924 -0.4898037023721755 1.9647024824361112
atom 21.0399999999999991 52.5999999999999943 0.0000000000000000 Ar
    velocity -0.7729893212005341 1.0751163468951352 -0.0825150947268456
atom 26.2999999999999972 52.5999999999999943 0.0000000000000000 Ar
    velocity 0.8043055034899756 -0.8377401324488420 0.4136555462095497
atom 31.5599999999999987 52.5999999999999943 0.0000000000000000 Ar
    velocity 0.4665747175854011 -0.1401985128842680 -0.4759880062819116
atom 36.8200000000000003 52.5999999999999943 0.0000000000000000 Ar
    velocity -0.2769723619884132 0.3307612563730314 -0.4097500119723878
atom 42.0799999999999983 52.5999999999999943 0.0000000000000000 Ar
    velocity -0.4181926384084989 -0.2154385024609730 0.9578155991368328
atom 47.3399999999999963 52.5999999999999943 0.0000000000000000 Ar
    velocity 0.4717695651952021 -1.7896099875179634 1.0330317749601809
atom 52.5999999999999943 52.5999999999999943 0.0000000000000000 Ar
    velocity -0.3899204981372701 1.4682542260293334 1.0863100619917527
atom 57.8599999999999994 52.5999999999999943 0.0000000000000000 Ar
    velocity 0.9346497483458578 -1.0269270626370637 1.0425997910515152
atom 63.1199999999999974 52.5999999999999943 0.0000000000000000 Ar
    velocity 1.2053090664018127 0.3055244677489279 1.0692251952041452
atom 68.3800000000000097 52.5999999999999943 0.0000000000000000 Ar
    velocity -1.7589823172614156 -0.7668840222174471 1.3704376355895980
atom 0.0000000000000000 57.8599999999999994 0.0000000000000000 Ar
    velocity 0.0487397907610734 -0.7083485072052956 0.6355806231236281
atom 5.2599999999999998 57.8599999999999994 0.0000000000000000 Ar
    velocity -0.1522081864549957 -0.5958257433094744 0.7563208895070025
atom 10.5199999999999996 57.8599999999999994 0.0000000000000000 Ar
    velocity -1.4276459403880464 0.4946435510505063 -0.1195006582389608
atom 15.7799999999999994 57.8599999999999994 0.0000000000000000 Ar
    velocity -0.4386004166337795 -0.9327236305773409 0.4620032006397392
atom 21.0399999999999991 57.8599999999999994 0.0000000000000000 Ar
    velocity -0.2140669666699684 0.7676287403050671 -0.9115196263391433
atom 26.2999999999999972 57.8599999999999994 0.0000000000000000 Ar
    velocity 0.0055318876300318 -0.2345096658635552 0.8686294557657627
atom 31.5599999999999987 57.8599999999999994 0.0000000000000000 Ar
    velocity -0.1826503728926110 -0.0826142742399623 0.1918344499718074
atom 36.8200000000000003 57.8599999999999994 0.0000000000000000 Ar
    velocity -0.2079711465404937 -0.0501311871871099 0.1895987765828722
atom 42.0799999999999983 57.8599999999999994 0.0000000000000000 Ar
    velocity -0.7697473418324958 0.6033591407246165 0.2249236690971207
atom 47.3399999999999963 57.8599999999999994 0.0000000000000000 Ar
    velocity 1.6035323079130559 0.7723164229546959 0.6934281373703395
atom 52.5999999999999943 57.8599999999999994 0.0000000000000000 Ar
    velocity -0.3632220036067487 0.7085281564982748 0.0766070742138943
atom 57.8599999999999994 57.8599999999999994 0.0000000000000000 Ar
    velocity 0.8446881675315283 -0.4192595775937108 0.9134171879539846
atom 63.1199999999999974 57.8599999999999994 0.0000000000000000 Ar
    velocity -0.3980629027054584 1.3564472031737644 -0.2237928689304026
atom 68.3800000000000097 57.8599999999999994 0.0000000000000000 Ar
    velocity 1.1652709668501937 -1.3345523503115213 -0.4566150132214952
atom 0.0000000000000000 63.1199999999999974 0.0000000000000000 Ar
    velocity 0.7667564182005528 0.2967850089944694 0.5323907916705137
atom 5.2599999999999998 63.1199999999999974 0.0000000000000000 Ar
    velocity 0.2793500053511054 -1.1192374979656523 -0.0230216120667522
atom 10.5199999999999996 63.1199999999999974 0.0000000000000000 Ar
    velocity 0.0354527694556855 -0.3596164012235501 0.0468115451763098
atom 15.7799999999999994 63.1199999999999974 0.0000000000000000 Ar
    velocity 0.8159782985390429 0.3112553807615887 0.3480047308375119
atom 21.0399999999999991 63.1199999999999974 0.0000000000000000 Ar
    velocity 1.6367577995917668 -0.8667484644512083 -0.4030187229661494
atom 26.2999999999999972 63.1199999999999974 0.0000000000000000 Ar
    velocity 0.7179094323419983 0.5054545519555944 -0.8837919050527510
atom 31.5599999999999987 63.1199999999999974 0.0000000000000000 Ar
    velocity -0.9537652796064841 0.2647283381345981 0.9267186694898496
atom 36.8200000000000003 63.1199999999999974 0.0000000000000000 Ar
    velocity -0.1409769718768799 1.4255181320844610 0.0092419007593394
atom 42.0799999999999983 63.1199999999999974 0.0000000000000000 Ar
    velocity 0.4354677913757248 0.1390467540350709 1.1062913851677860
atom 47.3399999999999963 63.1199999999999974 0.0000000000000000 Ar
    velocity 0.8984509112752733 0.1195128510386517 -1.3900469039665964
atom 52.5999999999999943 63.1199999999999974 0.0000000000000000 Ar
    velocity -0.1752190469748631 -0.6656153183124890 -0.0629340106326083
atom 57.8599999999999994 63.1199999999999974 0.0000000000000000 Ar
    velocity 0.1564147059505382 2.0087296821388878 0.2521032619784415
atom 63.1199999999999974 63.1199999999999974 0.0000000000000000 Ar
    velocity -2.0787621615624232 0.1779634379399772 0.5427329320958824
atom 68.3800000000000097 63.1199999999999974 0.0000000000000000 Ar
    velocity 0.5263503537369916 -0.6532673170705403 -0.3888794512474592
atom 0.0000000000000000 68.3800000000000097 0.0000000000000000 Ar
    velocity 0.1257343976409157 -0.1130776573161901 0.1011682064174440
atom 5.2599999999999998 68.3800000000000097 0.0000000000000000 Ar
    velocity 0.4966207334317542 -0.0501881514740213 0.8880002222268779
atom 10.5199999999999996 68.3800000000000097 0.0000000000000000 Ar
    velocity -0.5315223802725811 0.5229276091567666 0.8600750145390526
atom 15.7799999999999994 68.3800000000000097 0.0000000000000000 Ar
    velocity -0.0189638030611836 0.4614761400666324 1.0316740400151954
atom 21.0399999999999991 68.3800000000000097 0.0000000000000000 Ar
    velocity -0.2190845095637673 1.2346097619645207 2.0205567983690393
atom 26.2999999999999972 68.3800000000000097 0.0000000000000000 Ar
    velocity -0.4665334851795189 0.3733635018092475 0.2179904024361071
atom 31.5599999999999987 68.3800000000000097 0.0000000000000000 Ar
    velocity -0.2391898907275449 -1.2166743737072825 -0.6926928204784094
atom 36.8200000000000003 68.3800000000000097 0.0000000000000000 Ar
    velocity -0.2084584460881814 -0.0507482855001492 0.3424633512287458
atom 42.0799999999999983 68.3800000000000097 0.0000000000000000 Ar
    velocity -1.2811707689712837 0.5060729952899149 -0.5380781875403405
atom 47.3399999999999963 68.3800000000000097 0.0000000000000000 Ar
    velocity -0.3731913766175894 1.6916796842611537 -0.4385065054098960
atom 52.5999999999999943 68.3800000000000097 0.0000000000000000 Ar
    velocity 1.1633475380621547 -0.2395473490053456 -0.4319437743947526
atom 57.8599999999999994 68.3800000000000097 0.0000000000000000 Ar
    velocity 0.4825177627467857 -0.2761757044082722 0.4309108923172661
atom 63.1199999999999974 68.3800000000000097 0.0000000000000000 Ar
    velocity -0.0059656666720720 -0.0181202010144709 0.5621172430286593
atom 68.3800000000000097 68.3800000000000097 0.0000000000000000 Ar
    velocity -0.3467929092677446 1.1114807414972112 0.2216115192769300
atom 0.0000000000000000 0.0000000000000000 5.2599999999999998 Ar
    velocity -0.3714620579371711 1.8814131302340276 0.4917795656137458
atom 5.2599999999999998 0.0000000000000000 5.2599999999999998 Ar
    velocity 0.7753341621283936 -1.0982894920353177 0.8711105069060010
atom 10.5199999999999996 0.0000000000000000 5.2599999999999998 Ar
    velocity 1.6192245944492032 -0.2116923642136472 -0.2753689716322582
atom 15.7799999999999994 0.0000000000000000 5.2599999999999998 Ar
    velocity 0.4933810394312104 0.4317022251700129 -1.5476528463183825
atom 21.0399999999999991 0.0000000000000000 5.2599999999999998 Ar
    velocity -1.8321629254424796 -0.1253233587152273 -0.9062235151907647
atom 26.2999999999999972 0.0000000000000000 5.2599999999999998 Ar
    velocity 0.0336022269215652 1.9648382767245685 -0.4023740231200506
atom 31.5599999999999987 0.0000000000000000 5.2599999999999998 Ar
    velocity 0.4341030010497099 0.5184503151090818 -0.5845071900313763
atom 36.8200000000000003 0.0000000000000000 5.2599999999999998 Ar
    velocity 0.2144477069683186 -0.5690043164043751 0.3945478544764172
atom 42.0799999999999983 0.0000000000000000 5.2599999999999998 Ar
    velocity 0.8560357467390012 -0.2862490229522037 -0.0012545532791743
atom 47.3399999999999963 0.0000000000000000 5.2599999999999998 Ar
    velocity -1.1007876186724510 -1.5914327390760916 0.4431193789809920
atom 52.5999999999999943 0.0000000000000000 5.2599999999999998 Ar
    velocity 0.6240923650533058 0.2440728307334243 -1.1130522611047862
atom 57.8599999999999994 0.0000000000000000 5.2599999999999998 Ar
    velocity 0.5800796647376661 -0.7912728449690726 -0.7830813235651429
atom 63.1199999999999974 0.0000000000000000 5.2599999999999998 Ar
    velocity -1.2977378727742925 1.5187651718878130 0.1011221792254866
atom 68.3800000000000097 0.0000000000000000 5.2599999999999998 Ar
    velocity -1.0162779223277865 -1.0421499409484800 0.1745241725555708
atom 0.0000000000000000 5.2599999999999998 5.2599999999999998 Ar
    velocity 0.8022013636852239 -0.5711037842278400 -0.4020678040249411
atom 5.2599999999999998 5.2599999999999998 5.2599999999999998 Ar
    velocity 0.3705004404273913 0.4602358436247289 1.0540114281740358
atom 10.5199999999999996 5.2599999999999998 5.2599999999999998 Ar
    velocity 0.3893179964702367 0.2747371558930424 -1.0750005447475051
atom 15.7799999999999994 5.2599999999999998 5.2599999999999998 Ar