#=======================================================
# FHI-aims file: argon_2304_30k.in
# Created using the Atomic Simulation Environment (ASE)
# Tue Jun 15 19:24:51 2021
#=======================================================
lattice_vector 42.0799999999999983 0.0000000000000000 0.0000000000000000 
lattice_vector 0.0000000000000000 42.0799999999999983 0.0000000000000000 
lattice_vector 0.0000000000000000 0.0000000000000000 47.3399999999999963 
atom 0.0000000000000000 0.0000000000000000 0.0000000000000000 Ar
    velocity -0.5671244243643264 0.5589777728944090 0.5591180222255306
atom 5.2599999999999998 0.0000000000000000 0.0000000000000000 Ar
    velocity -0.8612241930766010 0.0662705739976569 0.3503667029227642
atom 10.5199999999999996 0.0000000000000000 0.0000000000000000 Ar
    velocity 0.2813465951066470 0.3252077151541508 0.3290949084913991
atom 15.7799999999999994 0.0000000000000000 0.0000000000000000 Ar
    velocity 0.6262068191560494 1.5020724411924404 0.0835061083071314
atom 21.0399999999999991 0.0000000000000000 0.0000000000000000 Ar
    velocity -0.8897162517054054 -1.5447370044041455 -0.2079183673889986
atom 26.2999999999999972 0.0000000000000000 0.0000000000000000 Ar
    velocity -0.7092310946191330 -1.2674002269939630 0.2725868743024273
atom 31.5599999999999987 0.0000000000000000 0.0000000000000000 Ar
    velocity -0.2869875237877355 -0.6308611546376729 -0.7757181605217690
atom 36.8200000000000003 0.0000000000000000 0.0000000000000000 Ar
    velocity -0.1559724147602615 0.2472048988836258 0.1392722163110663
atom 0.0000000000000000 5.2599999999999998 0.0000000000000000 Ar
    velocity -0.3741883587488650 0.8328399144759898 -0.5394084418390418
atom 5.2599999999999998 5.2599999999999998 0.0000000000000000 Ar
    velocity -0.6036563089530967 0.3575158401305006 -0.2398320019834762
atom 10.5199999999999996 5.2599999999999998 0.0000000000000000 Ar
    velocity 0.3381286230416057 0.6352546477135951 -0.8075729643622747
atom 15.7799999999999994 5.2599999999999998 0.0000000000000000 Ar
    velocity -0.9034693974380634 -0.2143185604526116 -0.7503935504014003
atom 21.0399999999999991 5.2599999999999998 0.0000000000000000 Ar
    velocity 1.1595003494434675 -0.4561672491116850 -0.2153815591076601
atom 26.2999999999999972 5.2599999999999998 0.0000000000000000 Ar
    velocity 0.9749583761843275 0.0416049504186954 0.1601831298921556
atom 31.5599999999999987 5.2599999999999998 0.0000000000000000 Ar
    velocity 1.9222529249647162 -0.2787780955180789 0.3729956444565660
atom 36.8200000000000003 5.2599999999999998 0.0000000000000000 Ar
    velocity -0.2524266611393121 0.6929165101934778 0.6844561815700891
atom 0.0000000000000000 10.5199999999999996 0.0000000000000000 Ar
    velocity 1.2584878235019128 0.4229835631654708 -0.1950067594622632
atom 5.2599999999999998 10.5199999999999996 0.0000000000000000 Ar
    velocity 1.2837266824446136 0.3871754824611499 -0.9905023335872041
atom 10.5199999999999996 10.5199999999999996 0.0000000000000000 Ar
    velocity 0.0305400711631587 0.1047845560197062 0.6083209756495972
atom 15.7799999999999994 10.5199999999999996 0.0000000000000000 Ar
    velocity 0.0272640833198670 -1.2229081645635898 -0.6513579110457793
atom 21.0399999999999991 10.5199999999999996 0.0000000000000000 Ar
    velocity -0.1666288974260516 0.4119737791006380 0.6988074990523846
atom 26.2999999999999972 10.5199999999999996 0.0000000000000000 Ar
    velocity -0.1532144593153356 0.5183922725569916 0.1058328425077581
atom 31.5599999999999987 10.5199999999999996 0.0000000000000000 Ar
    velocity -0.1539658476638727 -1.1040664629016068 -0.9840587044738160
atom 36.8200000000000003 10.5199999999999996 0.0000000000000000 Ar
    velocity 0.6520926188905736 0.2191042262597717 0.3433992161313095
atom 0.0000000000000000 15.7799999999999994 0.0000000000000000 Ar
    velocity -0.1786971550204588 0.4701249183715261 -0.9007797983961516
atom 5.2599999999999998 15.7799999999999994 0.0000000000000000 Ar
    velocity 0.2599225072529693 0.4126754289073170 1.0550250245406003
atom 10.5199999999999996 15.7799999999999994 0.0000000000000000 Ar
    velocity 0.5311404936637288 -0.6627944218099029 -0.5964687405585208
atom 15.7799999999999994 15.7799999999999994 0.0000000000000000 Ar
    velocity 0.1326184230728021 -0.1052476350308778 0.6226512026275995
atom 21.0399999999999991 15.7799999999999994 0.0000000000000000 Ar
    velocity 1.2785971391765756 -0.6711473645167045 -0.9853867966664617
atom 26.2999999999999972 15.7799999999999994 0.0000000000000000 Ar
    velocity 0.7673088791141353 -0.4276174128090873 -0.1816088264360692
atom 31.5599999999999987 15.7799999999999994 0.0000000000000000 Ar
    velocity 0.0906041364499897 0.6755089549104887 0.1480690594265155
atom 36.8200000000000003 15.7799999999999994 0.0000000000000000 Ar
    velocity 0.7233910503706522 0.5054434777993281 0.0993683901227655
atom 0.0000000000000000 21.0399999999999991 0.0000000000000000 Ar
    velocity -0.0299168455598788 -1.0781432275625089 -0.3595397661617022
atom 5.2599999999999998 21.0399999999999991 0.0000000000000000 Ar
    velocity 0.6591700286735618 0.2764416334518636 -0.2863567811349130
atom 10.5199999999999996 21.0399999999999991 0.0000000000000000 Ar
    velocity -1.0162780808529237 -0.1958558409489823 -0.3387128340710397
atom 15.7799999999999994 21.0399999999999991 0.0000000000000000 Ar
    velocity 0.1749118261199040 -0.1941807687671180 0.9814527326254217
atom 21.0399999999999991 21.0399999999999991 0.0000000000000000 Ar
    velocity -0.2024762986612577 0.5147120613397671 0.7789141122046935
atom 26.2999999999999972 21.0399999999999991 0.0000000000000000 Ar
    velocity -0.3328917627826241 -1.0901352028296722 -1.4525091046742635
atom 31.5599999999999987 21.0399999999999991 0.0000000000000000 Ar
    velocity -2.1388919534523105 0.1864373140893773 0.0580269695989118
atom 36.8200000000000003 21.0399999999999991 0.0000000000000000 Ar
    velocity 0.3396520413530647 0.1375712301884368 0.0950807633260474
atom 0.0000000000000000 26.2999999999999972 0.0000000000000000 Ar
    velocity -0.1158225853196459 -0.1494138711668660 -1.1918798171214084
atom 5.2599999999999998 26.2999999999999972 0.0000000000000000 Ar
    velocity -0.9256941224149134 0.0343218515355075 -0.5223467605916109
atom 10.5199999999999996 26.2999999999999972 0.0000000000000000 Ar
    velocity 0.0632963754608123 -0.2179369940815191 0.2809155316622841
atom 15.7799999999999994 26.2999999999999972 0.0000000000000000 Ar
    velocity -0.2599638346546856 -1.4054024672342125 0.1953328332859883
atom 21.0399999999999991 26.2999999999999972 0.0000000000000000 Ar
    velocity -1.3047947485347855 -1.4322885038745641 -0.4940594218536495
atom 26.2999999999999972 26.2999999999999972 0.0000000000000000 Ar
    velocity 0.4732432887432249 -0.0475416067270989 1.2864612682576586
atom 31.5599999999999987 26.2999999999999972 0.0000000000000000 Ar
    velocity 0.6213865208476504 -1.4870031369445789 1.2790826234312653
atom 36.8200000000000003 26.2999999999999972 0.0000000000000000 Ar
    velocity 0.5223097718686027 0.8957497883634967 0.4576075514769696
atom 0.0000000000000000 31.5599999999999987 0.0000000000000000 Ar
    velocity 1.5488297493065681 0.3843409819307994 -0.4385455614759338
atom 5.2599999999999998 31.5599999999999987 0.0000000000000000 Ar
    velocity 0.5212048168209429 1.1429254711423111 -0.2097607937103698
atom 10.5199999999999996 31.5599999999999987 0.0000000000000000 Ar
    velocity 0.5510129163995195 0.4900244637405035 0.6849061597414036
atom 15.7799999999999994 31.5599999999999987 0.0000000000000000 Ar
    velocity -0.0367105627191457 -0.1764925673946316 -0.7998236619361723
atom 21.0399999999999991 31.5599999999999987 0.0000000000000000 Ar
    velocity 0.7797043008323028 0.3441916494945272 0.7250969614735421
atom 26.2999999999999972 31.5599999999999987 0.0000000000000000 Ar
    velocity -1.0913416760401928 0.6524911774774955 0.0876535043808275
atom 31.5599999999999987 31.5599999999999987 0.0000000000000000 Ar
    velocity -0.1220848178331447 -0.0614654682597936 1.5028419574284204
atom 36.8200000000000003 31.5599999999999987 0.0000000000000000 Ar
    velocity -0.4097844261182101 -1.1786942101022069 1.1404604284084099
atom 0.0000000000000000 36.8200000000000003 0.0000000000000000 Ar
    velocity -0.7258207132559658 0.3687183433389378 -0.4394646747663173
atom 5.2599999999999998 36.8200000000000003 0.0000000000000000 Ar
    velocity 0.9973151379802332 0.3252863587009986 -0.0258824839799974
atom 10.5199999999999996 36.8200000000000003 0.0000000000000000 Ar
    velocity 1.1750929068043199 0.1102518735183906 0.2364250932845456
atom 15.7799999999999994 36.8200000000000003 0.0000000000000000 Ar
    velocity 1.2226511459764586 -0.3125385041148009 -0.9021126300714196
atom 21.0399999999999991 36.8200000000000003 0.0000000000000000 Ar
    velocity -0.2317825762920564 -1.3093158065680224 0.3158065705517999
atom 26.2999999999999972 36.8200000000000003 0.0000000000000000 Ar
    velocity -0.1348483196131502 -0.8745232289154504 0.9234572221325580
atom 31.5599999999999987 36.8200000000000003 0.0000000000000000 Ar
    velocity 0.5678790638454304 -1.0991721900619864 0.6446822992507736
atom 36.8200000000000003 36.8200000000000003 0.0000000000000000 Ar
    velocity -0.8691567529901323 0.6266999835291888 0.1724179897314135
atom 0.0000000000000000 0.0000000000000000 5.2599999999999989 Ar
    velocity -0.2590452411728427 0.8654352871697619 0.3122173991325884
atom 5.2599999999999998 0.0000000000000000 5.2599999999999989 Ar
    velocity 0.7218282109346790 -0.7529485132642549 -0.8708643318628835
atom 10.5199999999999996 0.0000000000000000 5.2599999999999989 Ar
    velocity 0.1044776035624260 -0.9905087935878674 0.1420353471329769
atom 15.7799999999999994 0.0000000000000000 5.2599999999999989 Ar
    velocity -1.4664976552334601 -0.6507517625832804 -0.1917811415570098
atom 21.0399999999999991 0.0000000000000000 5.2599999999999989 Ar
    velocity 0.0025341882364176 -0.1302765223728655 0.3577461404605381
atom 26.2999999999999972 0.0000000000000000 5.2599999999999989 Ar
    velocity -0.3663058318374891 0.0091526437731995 0.2727363384678967
atom 31.5599999999999987 0.0000000000000000 5.2599999999999989 Ar
    velocity -0.4155026931085173 0.1375194801850661 -0.7265633963501843
atom 36.8200000000000003 0.0000000000000000 5.2599999999999989 Ar
    velocity -0.8846953598556259 0.9709311610575643 -0.1207518487536300
atom 0.0000000000000000 5.2599999999999998 5.2599999999999989 Ar
    velocity 1.5243713827684247 -2.0811922785087713 -0.4797233023784414
atom 5.2599999999999998 5.2599999999999998 5.2599999999999989 Ar
    velocity 0.0402656690693111 -0.3560474439245379 -0.6820699121368919
atom 10.5199999999999996 5.2599999999999998 5.2599999999999989 Ar
    velocity 0.4531475426699228 0.1453964035656654 -0.3353275934482653
atom 15.7799999999999994 5.2599999999999998 5.2599999999999989 Ar
    velocity 0.7869261985722479 0.1463652891956888 0.5735289072765172
atom 21.0399999999999991 5.2599999999999998 5.2599999999999989 Ar
    velocity 0.2686009196826996 0.4824802404689370 -0.2279906625649301
atom 26.2999999999999972 5.2599999999999998 5.2599999999999989 Ar
    velocity -0.7685225443122473 -0.5031094898777423 -0.2947387075471826
atom 31.5599999999999987 5.2599999999999998 5.2599999999999989 Ar
    velocity 0.6955498730322670 -0.1696985533639655 -1.0414750619185340
atom 36.8200000000000003 5.2599999999999998 5.2599999999999989 Ar
    velocity -0.1217959279378949 -0.9055862332027189 -0.8928176525494905
atom 0.0000000000000000 10.5199999999999996 5.2599999999999989 Ar
    velocity -0.1033232923440900 -1.1265388892355779 0.6495616274565450
atom 5.2599999999999998 10.5199999999999996 5.2599999999999989 Ar
    velocity -0.2625025380037875 0.4944426845359094 1.2739760071646582
atom 10.5199999999999996 10.5199999999999996 5.2599999999999989 Ar
    velocity -1.0300980739007131 0.2567749952954535 -0.6019565153776862
atom 15.7799999999999994 10.5199999999999996 5.2599999999999989 Ar
    velocity -0.7904385796445790 -0.6136801674805653 0.0121304396871222
atom 21.0399999999999991 10.5199999999999996 5.2599999999999989 Ar
    velocity -0.2244134017816385 -1.2308574519134292 -0.9422076255865703
atom 26.2999999999999972 10.5199999999999996 5.2599999999999989 Ar
    velocity 0.4040031745135846 -0.9008219542277067 -0.4489505967161782
atom 31.5599999999999987 10.5199999999999996 5.2599999999999989 Ar
    velocity -0.0418423580742916 -0.2410612389359249 -1.1244412463035460
atom 36.8200000000000003 10.5199999999999996 5.2599999999999989 Ar
    velocity -0.7858476401336398 -0.1767971132915475 0.8194902959320913
atom 0.0000000000000000 15.7799999999999994 5.2599999999999989 Ar
    velocity 0.3581695939694469 0.8556234123026109 1.7268117113571855
atom 5.2599999999999998 15.7799999999999994 5.2599999999999989 Ar
    velocity -0.5493507892229195 1.8718481829935834 1.2980245056250961
atom 10.5199999999999996 15.7799999999999994 5.2599999999999989 Ar
    velocity -0.1149189680820721 0.1264798869297136 1.0008110949336888
atom 15.7799999999999994 15.7799999999999994 5.2599999999999989 Ar
    velocity -0.5917018769302486 -0.0237278896070246 -2.6095147860496888
atom 21.0399999999999991 15.7799999999999994 5.2599999999999989 Ar
    velocity -1.0257230448013852 -0.0397281174066649 -1.9057226721279943
atom 26.2999999999999972 15.7799999999999994 5.2599999999999989 Ar
    velocity -0.1110101644105341 0.0950046391282471 -0.2884871076557785
atom 31.5599999999999987 15.7799999999999994 5.2599999999999989 Ar
    velocity -0.1818674633346736 0.4608086749617119 -0.5657812790464760
atom 36.8200000000000003 15.7799999999999994 5.2599999999999989 Ar
    velocity 0.9498396311411926 0.2522059786561383 -0.8573890674709631
atom 0.0000000000000000 21.0399999999999991 5.2599999999999989 Ar
    velocity -0.0188606124080174 -0.7574457105951344 -0.3323259541662997
atom 5.2599999999999998 21.0399999999999991 5.2599999999999989 Ar
    velocity 0.8258278290111744 0.1109647498170102 1.3284159064907874
atom 10.5199999999999996 21.0399999999999991 5.2599999999999989 Ar
    velocity -0.1284157196371432 -1.5119285147070083 -0.3937546473940230
atom 15.7799999999999994 21.0399999999999991 5.2599999999999989 Ar
    velocity -0.0429299099453925 -0.9536943705736194 0.5185275768062634
atom 21.0399999999999991 21.0399999999999991 5.2599999999999989 Ar
    velocity -0.3634451600178340 0.7051570894829868 -0.1685503669969103
atom 26.2999999999999972 21.0399999999999991 5.2599999999999989 Ar
    velocity -1.5454281395044636 -0.7854347679550343 -1.0385352345112844
atom 31.5599999999999987 21.0399999999999991 5.2599999999999989 Ar
    velocity -0.5685416853474378 -0.3249952706444441 -0.9712338464829290
atom 36.8200000000000003 21.0399999999999991 5.2599999999999989 Ar
    velocity -0.9889162537303097 0.8649119515779099 -1.1104857071511427
atom 0.0000000000000000 26.2999999999999972 5.2599999999999989 Ar
    velocity -0.5669439008923786 -0.6996726105832864 -1.0514299768613464
atom 5.2599999999999998 26.2999999999999972 5.2599999999999989 Ar
    velocity 0.3254623014284121 0.0761667027648789 0.4707580529807127
atom 10.5199999999999996 26.2999999999999972 5.2599999999999989 Ar
    velocity -0.6896489128618990 -0.5948931333789454 0.9078738734225568
atom 15.7799999999999994 26.2999999999999972 5.2599999999999989 Ar
    velocity 0.5059659583012186 -0.5740229009798206 0.4999546690361582
atom 21.0399999999999991 26.2999999999999972 5.2599999999999989 Ar
    velocity -0.2310885402163163 -0.9372534989519483 0.3399160622310741
atom 26.2999999999999972 26.2999999999999972 5.2599999999999989 Ar
    velocity -0.6500364663907827 -0.3524851219020442 -0.0073493237655709
atom 31.5599999999999987 26.2999999999999972 5.2599999999999989 Ar
    velocity 0.1220288710637706 -0.6905114517975698 -0.2077104227632315
atom 36.8200000000000003 26.2999999999999972 5.2599999999999989 Ar
    velocity 0.1217567297850936 -0.1343205501129131 -0.3936171207673095
atom 0.0000000000000000 31.5599999999999987 5.2599999999999989 Ar
    velocity -0.6698099033740792 0.6580418977045926 0.2662117312285092
atom 5.2599999999999998 31.5599999999999987 5.2599999999999989 Ar
    velocity -1.6737654107490614 0.3958000901485594 -0.0182040904779338
atom 10.5199999999999996 31.5599999999999987 5.2599999999999989 Ar
    velocity 0.1826474828398454 -0.7362940780687193 0.5681379975318146
atom 15.7799999999999994 31.5599999999999987 5.2599999999999989 Ar
    velocity 1.2761292645955868 0.0115705239680808 -0.6944629664471446
atom 21.0399999999999991 31.5599999999999987 5.2599999999999989 Ar
    velocity -0.4873970333855406 0.2279068054832280 0.0119897755409069
atom 26.2999999999999972 31.5599999999999987 5.2599999999999989 Ar
    velocity -0.9687373669330042 0.6423415456043922 0.0001783394006862
atom 31.5599999999999987 31.5599999999999987 5.2599999999999989 Ar
    velocity -0.3874301252205449 -0.2231469711227972 0.0520038945309897
atom 36.8200000000000003 31.5599999999999987 5.2599999999999989 Ar
    velocity 0.2526531776344031 0.0671369619216258 0.0456426269408965
atom 0.0000000000000000 36.8200000000000003 5.2599999999999989 Ar
    velocity -0.2949900170910529 -0.0346519069199338 0.0891774490666069
atom 5.2599999999999998 36.8200000000000003 5.2599999999999989 Ar
    velocity 0.1748913466157993 0.0612004945680958 -1.1008121688168977
atom 10.5199999999999996 36.8200000000000003 5.2599999999999989 Ar
    velocity -0.3930450653877534 0.3423495244084971 -0.3657644571127161
atom 15.7799999999999994 36.8200000000000003 5.2599999999999989 Ar
    velocity -0.6735519328686910 0.5604160590896101 0.3176906994360719
atom 21.0399999999999991 36.8200000000000003 5.2599999999999989 Ar
    velocity -0.3024607736482725 -1.8936006492546247 -0.4432784315952023
atom 26.2999999999999972 36.8200000000000003 5.2599999999999989 Ar
    velocity -0.1239718932419031 0.4377789210078356 1.5795792820819965
atom 31.5599999999999987 36.8200000000000003 5.2599999999999989 Ar
    velocity 0.8201983787797512 -0.1012965063796010 0.4191726893444347
atom 36.8200000000000003 36.8200000000000003 5.2599999999999989 Ar
    velocity 0.1459386625829238 0.4199729956742616 -0.5779035421777836
atom 0.0000000000000000 0.0000000000000000 10.5199999999999978 Ar
    velocity -0.8174029908501946 0.5292866003867751 0.2968079139167864
atom 5.2599999999999998 0.0000000000000000 10.5199999999999978 Ar
    velocity -0.3168293026738858 0.7452734518128332 -0.4269881936629358
atom 10.5199999999999996 0.0000000000000000 10.5199999999999978 Ar
    velocity 0.1874432251615152 -0.5779513542792364 0.4671133894055592
atom 15.7799999999999994 0.0000000000000000 10.5199999999999978 Ar
    velocity 0.6940652095899127 0.1328494898511405 0.4276937620081532
atom 21.0399999999999991 0.0000000000000000 10.5199999999999978 Ar
    velocity -0.2219479368485009 0.8305833751827048 1.6894363928589766
atom 26.2999999999999972 0.0000000000000000 10.5199999999999978 Ar
    velocity -0.3849840770991797 -0.5046692649870073 0.6676141392109325
atom 31.5599999999999987 0.0000000000000000 10.5199999999999978 Ar
    velocity 0.1397409377451692 0.8061580615801536 1.7740130076040252
atom 36.8200000000000003 0.0000000000000000 10.5199999999999978 Ar
    velocity -0.7286022040995307 0.3571438878360195 0.7388920355666092
atom 0.0000000000000000 5.2599999999999998 10.5199999999999978 Ar
    velocity -0.3541238706566129 -1.5944790715144175 0.0460299870170440
atom 5.2599999999999998 5.2599999999999998 10.5199999999999978 Ar
    velocity -0.8509980422415857 0.5674106746663089 0.4507914581784516
atom 10.5199999999999996 5.2599999999999998 10.5199999999999978 Ar
    velocity 0.0048958503656104 -1.5596865896860721 0.5075914740920980
atom 15.7799999999999994 5.2599999999999998 10.5199999999999978 Ar
    velocity 0.3599621721031263 1.0887429940492830 -0.0831869887737395
atom 21.0399999999999991 5.2599999999999998 10.5199999999999978 Ar
    velocity -0.6438861160432291 -0.8836191744678185 0.1608146973482532
atom 26.2999999999999972 5.2599999999999998 10.5199999999999978 Ar
    velocity 0.8678509269914774 -0.1687740187547234 0.8370857655998125
atom 31.5599999999999987 5.2599999999999998 10.5199999999999978 Ar
    velocity -0.0397158567896730 0.6706084978760626 0.2542578166952323
atom 36.8200000000000003 5.2599999999999998 10.5199999999999978 Ar
    velocity -1.4559338418198244 0.4083821476982042 -0.2746646857997772
atom 0.0000000000000000 10.5199999999999996 10.5199999999999978 Ar
    velocity -0.5664210723919072 -2.5179811569872350 1.0141978204796713
atom 5.2599999999999998 10.5199999999999996 10.5199999999999978 Ar
    velocity -0.9904550454056809 -0.5335513126385687 1.9667340262900264
atom 10.5199999999999996 10.5199999999999996 10.5199999999999978 Ar
    velocity 0.1146492291312256 -0.1779027655767106 2.1474191296723233
atom 15.7799999999999994 10.5199999999999996 10.5199999999999978 Ar
    velocity 1.0570452618185762 -0.2334331546174422 0.6267956487588870
atom 21.0399999999999991 10.5199999999999996 10.5199999999999978 Ar
    velocity 1.4351303737978895 -0.0400444790359202 -0.3757473124342327
atom 26.2999999999999972 10.5199999999999996 10.5199999999999978 Ar
    velocity 1.2125826137711220 -0.3924424125502718 -0.0904175757188777
atom 31.5599999999999987 10.5199999999999996 10.5199999999999978 Ar
    velocity -0.5811177683969625 0.5537882081843878 1.1178539691134588
atom 36.8200000000000003 10.5199999999999996 10.5199999999999978 Ar
    velocity -0.5440002956709811 -0.6167943155848168 0.3335972040510476
atom 0.0000000000000000 15.7799999999999994 10.5199999999999978 Ar
    velocity -0.1024286301717268 -0.7909810942654210 1.2690281590912356
atom 5.2599999999999998 15.7799999999999994 10.5199999999999978 Ar
    velocity -0.7439984360107034 1.2476176074360346 -0.2604426863620302
atom 10.5199999999999996 15.7799999999999994 10.5199999999999978 Ar
    velocity 0.0456808824687783 -0.4928386241780769 -0.8575240618218057
atom 15.7799999999999994 15.7799999999999994 10.5199999999999978 Ar
    velocity 1.3807362727247567 0.7926678189770353 -0.6412959183395480
atom 21.0399999999999991 15.7799999999999994 10.5199999999999978 Ar
    velocity 0.5560680379174775 -0.5131277194342572 0.0704050551592195
atom 26.2999999999999972 15.7799999999999994 10.5199999999999978 Ar
    velocity -0.6812061106956313 -1.0061847936366499 0.3102828723044872
atom 31.5599999999999987 15.7799999999999994 10.5199999999999978 Ar
    velocity 1.4869990501887576 1.1461654111081447 0.5174210190392223
atom 36.8200000000000003 15.7799999999999994 10.5199999999999978 Ar
    velocity -0.4783038230211228 0.3627897102560490 1.2851993058777336
atom 0.0000000000000000 21.0399999999999991 10.5199999999999978 Ar
    velocity -0.8955016161230337 -0.3748408513147611 1.4044695510917975
atom 5.2599999999999998 21.0399999999999991 10.5199999999999978 Ar
    velocity 0.4477397639478422 1.1236575131037412 -0.2113969877586484
atom 10.5199999999999996 21.0399999999999991 10.5199999999999978 Ar
    velocity -0.8549992520991453 0.6532776832538892 -0.6429005469270785
atom 15.7799999999999994 21.0399999999999991 10.5199999999999978 Ar
    velocity 0.6040203065907711 0.2402775827735581 -0.0623412909186469
atom 21.0399999999999991 21.0399999999999991 10.5199999999999978 Ar
    velocity -0.0812721765066590 0.0332171792507135 -0.0641701957016311
atom 26.2999999999999972 21.0399999999999991 10.5199999999999978 Ar
    velocity -0.8074222898079995 -1.9091057488400036 1.3134437444850535
atom 31.5599999999999987 21.0399999999999991 10.5199999999999978 Ar
    velocity 1.0702652110677984 0.1956882058089312 0.1389617229570270
atom 36.8200000000000003 21.0399999999999991 10.5199999999999978 Ar
    velocity -0.9894797894232801 -1.3114314023624192 -1.7770095284410135
atom 0.0000000000000000 26.2999999999999972 10.5199999999999978 Ar
    velocity -0.1445256173585535 0.3562336394119917 -1.4263540909872432
atom 5.2599999999999998 26.2999999999999972 10.5199999999999978 Ar
    velocity 0.3935040026645315 -1.1187601833318797 -1.1062407542038901
atom 10.5199999999999996 26.2999999999999972 10.5199999999999978 Ar
    velocity -0.3569306317932875 0.9505081026504064 0.0564522090334583
atom 15.7799999999999994 26.2999999999999972 10.5199999999999978 Ar
    velocity -1.9428813323467926 -1.3975550770751963 -0.5231365785633769
atom 21.0399999999999991 26.2999999999999972 10.5199999999999978 Ar
    velocity -1.4845435727291849 0.2129411850601352 -0.6448291462023487
atom 26.2999999999999972 26.2999999999999972 10.5199999999999978 Ar
    velocity -0.1589312170923424 -0.7319314356601888 0.0149354925085942
atom 31.5599999999999987 26.2999999999999972 10.5199999999999978 Ar
    velocity -0.5758511512554928 -0.6947551069721581 0.1870615648453275
atom 36.8200000000000003 26.2999999999999972 10.5199999999999978 Ar
    velocity -0.5497291659687986 -0.8608891331750872 0.1287511773127890
atom 0.0000000000000000 31.5599999999999987 10.5199999999999978 Ar
    velocity 1.6101184282349015 -0.6738662022594581 -0.2350882472964746
atom 5.2599999999999998 31.5599999999999987 10.5199999999999978 Ar
    velocity -0.7114431383803330 0.5991633649960172 -0.2312025510385867
atom 10.5199999999999996 31.5599999999999987 10.5199999999999978 Ar
    velocity -0.5041886599756911 0.1303232791774911 0.3892257777633562
atom 15.7799999999999994 31.5599999999999987 10.5199999999999978 Ar
    velocity 0.7326607233356481 0.3892199722342006 0.1051163396410919
atom 21.0399999999999991 31.5599999999999987 10.5199999999999978 Ar
    velocity 1.2979892546000031 1.1358815375619304 -0.5431965552990886
atom 26.2999999999999972 31.5599999999999987 10.5199999999999978 Ar
    velocity -0.3571463143480985 0.7268892518121334 0.4815813172551143
atom 31.5599999999999987 31.5599999999999987 10.5199999999999978 Ar
    velocity 0.0731608377341023 0.0013743132202810 0.1726285814263358
atom 36.8200000000000003 31.5599999999999987 10.5199999999999978 Ar
    velocity -0.2297395754809577 0.1030502073380453 -0.1703498011445959
atom 0.0000000000000000 36.8200000000000003 10.5199999999999978 Ar
    velocity 1.1134415271246030 -0.4363986931165085 -0.2825715495493003
atom 5.2599999999999998 36.8200000000000003 10.5199999999999978 Ar
    velocity 0.0531157597340183 1.1418919905080616 -1.0648148838752258
atom 10.5199999999999996 36.8200000000000003 10.5199999999999978 Ar
    velocity -0.4385498255796722 0.8709600557055082 -0.8388645788380225
atom 15.7799999999999994 36.8200000000000003 10.5199999999999978 Ar
    velocity -1.0768246674384381 0.0488623574493535 -0.4919183693642826
atom 21.0399999999999991 36.8200000000000003 10.5199999999999978 Ar
    velocity 0.6485424153122814 -1.0710993675975826 -0.5899433467103079
atom 26.2999999999999972 36.8200000000000003 10.5199999999999978 Ar
    velocity -0.4696526191826038 0.3104213609355418 1.1571831956791354
atom 31.5599999999999987 36.8200000000000003 10.5199999999999978 Ar
    velocity -0.2653823796048875 0.3923004541370774 0.0566828759809552
atom 36.8200000000000003 36.8200000000000003 10.5199999999999978 Ar
    velocity -0.6978565020477213 0.0973717134572659 0.8541904420722267
atom 0.0000000000000000 0.0000000000000000 15.7799999999999976 Ar
    velocity -0.8104096814173614 -1.0170730964355648 -1.4263589014006972
atom 5.2599999999999998 0.0000000000000000 15.7799999999999976 Ar
    velocity -1.6365433018645439 -0.2083048104419698 0.2321635262613044
atom 10.5199999999999996 0.0000000000000000 15.7799999999999976 Ar
    velocity 0.9391068849300194 -0.0328747907743790 -0.9019323039465900
atom 15.7799999999999994 0.0000000000000000 15.7799999999999976 Ar
    velocity -0.5312418320994651 0.9276253086651010 -0.0682140641869261
atom 21.0399999999999991 0.0000000000000000 15.7799999999999976 Ar
    velocity -0.6759714835227597 -0.1126316720442002 0.1742339237491284
atom 26.2999999999999972 0.0000000000000000 15.7799999999999976 Ar
    velocity 1.0308409584207561 0.9620725458859233 0.5593137288204723
atom 31.5599999999999987 0.0000000000000000 15.7799999999999976 Ar
    velocity 0.5373366084579375 -0.0721335009109431 -0.0937803149965781
atom 36.8200000000000003 0.0000000000000000 15.7799999999999976 Ar
    velocity -0.8806753837732736 -0.4047244076952902 0.4304723997767955
atom 0.0000000000000000 5.2599999999999998 15.7799999999999976 Ar
    velocity 0.3727591014088398 -0.3731165002681091 0.5670903839426863
atom 5.2599999999999998 5.2599999999999998 15.7799999999999976 Ar
    velocity 0.0978337180275818 -0.9991526812407738 -0.1366538066106763
atom 10.5199999999999996 5.2599999999999998 15.7799999999999976 Ar
    velocity 0.8112386887002428 -0.9883147356016339 0.4531174497007000
atom 15.7799999999999994 5.2599999999999998 15.7799999999999976 Ar
    velocity 1.1094778832322105 -0.2720826001855383 -1.3521277325449710
atom 21.0399999999999991 5.2599999999999998 15.7799999999999976 Ar
    velocity 0.4986938954264248 0.0158383823473379 0.9229987514333302
atom 26.2999999999999972 5.2599999999999998 15.7799999999999976 Ar
    velocity 0.4650580275685521 -0.0677387536294601 -0.1943766342660213
atom 31.5599999999999987 5.2599999999999998 15.7799999999999976 Ar
    velocity 1.4970354182057015 0.6263674789359321 -0.2105190754065035
atom 36.8200000000000003 5.2599999999999998 15.7799999999999976 Ar
    velocity -1.1040569954788886 1.5807224248967950 -0.4576395027299774
atom 0.0000000000000000 10.5199999999999996 15.7799999999999976 Ar
    velocity -1.6621374611625819 -0.1515120442549066 0.0683426216213745
atom 5.2599999999999998 10.5199999999999996 15.7799999999999976 Ar
    velocity -0.7730750105817048 0.2467756155865990 0.3978274985718527
atom 10.5199999999999996 10.5199999999999996 15.7799999999999976 Ar
    velocity -1.3453192150267486 -0.4599419552089458 -0.7551264444047388
atom 15.7799999999999994 10.5199999999999996 15.7799999999999976 Ar
    velocity 0.7865366914084048 1.0326269736116154 1.5376108899872580
atom 21.0399999999999991 10.5199999999999996 15.7799999999999976 Ar
    velocity -0.2401608473246052 -0.7253350710655385 -0.6636264482202242
atom 26.2999999999999972 10.5199999999999996 15.7799999999999976 Ar