#=======================================================
# FHI-aims file: argon_10192_30k.in
# Created using the Atomic Simulation Environment (ASE)
# Tue Jun 15 19:24:56 2021
#=======================================================
lattice_vector 68.3799999999999955 0.0000000000000000 0.0000000000000000 
lattice_vector 0.0000000000000000 73.6400000000000006 0.0000000000000000 
lattice_vector 0.0000000000000000 0.0000000000000000 73.6400000000000006 
atom 0.0000000000000000 0.0000000000000000 0.0000000000000000 Ar
    velocity 1.0204759667845542 -0.0643646867103560 1.0686772021410151
atom 5.2599999999999998 0.0000000000000000 0.0000000000000000 Ar
    velocity -0.3330049479062087 -0.0087516430675866 -0.0674527829414301
atom 10.5199999999999996 0.0000000000000000 0.0000000000000000 Ar
    velocity 0.6979638430226824 0.1772199458952186 -1.1162061211199823
atom 15.7799999999999976 0.0000000000000000 0.0000000000000000 Ar
    velocity 0.4789279939209223 -0.9029750047569339 1.6128486175539130
atom 21.0399999999999991 0.0000000000000000 0.0000000000000000 Ar
    velocity 0.7397326784987224 1.2436781437832176 -1.9949264649225289
atom 26.3000000000000007 0.0000000000000000 0.0000000000000000 Ar
    velocity 0.1489764138229332 0.8373415302317995 0.5042051207827715
atom 31.5599999999999952 0.0000000000000000 0.0000000000000000 Ar
    velocity 0.5392969981834236 -1.3126844736532453 1.4282033046364635
atom 36.8199999999999932 0.0000000000000000 0.0000000000000000 Ar
    velocity -0.2162988391584109 -1.6067947078014195 -1.0186946670264598
atom 42.0799999999999983 0.0000000000000000 0.0000000000000000 Ar
    velocity -0.3354435878266397 -0.5577233119235120 1.2467532877172580
atom 47.3399999999999963 0.0000000000000000 0.0000000000000000 Ar
    velocity -1.2478048751360264 -0.4036764701898954 -0.2198152914863061
atom 52.6000000000000014 0.0000000000000000 0.0000000000000000 Ar
    velocity -1.1711857602369637 -1.2349949192938561 -0.4647824418089083
atom 57.8600000000000065 0.0000000000000000 0.0000000000000000 Ar
    velocity 1.0316391753800520 -0.4062740598806842 1.0285495071743198
atom 63.1199999999999903 0.0000000000000000 0.0000000000000000 Ar
    velocity 1.2357502916945597 -0.1012368485494375 -1.2236697797232357
atom 0.0000000000000000 5.2599999999999998 0.0000000000000000 Ar
    velocity -1.6162401528163854 0.2217719357036130 0.8324193514761665
atom 5.2599999999999998 5.2599999999999998 0.0000000000000000 Ar
    velocity 0.5264261985233132 -0.3418025265506217 0.0838985513464025
atom 10.5199999999999996 5.2599999999999998 0.0000000000000000 Ar
    velocity -0.1997698094443318 -0.4934888003451939 -0.6441950354356030
atom 15.7799999999999976 5.2599999999999998 0.0000000000000000 Ar
    velocity 0.2026104876352280 0.6567652538921684 0.4777819822850580
atom 21.0399999999999991 5.2599999999999998 0.0000000000000000 Ar
    velocity -0.5289661677492768 -0.0016306738803050 0.3105659027800029
atom 26.3000000000000007 5.2599999999999998 0.0000000000000000 Ar
    velocity 0.1282526262911158 -1.5903194255839870 -0.4484862045717801
atom 31.5599999999999952 5.2599999999999998 0.0000000000000000 Ar
    velocity -1.5219993178424935 0.3334820002615012 0.5509865050983597
atom 36.8199999999999932 5.2599999999999998 0.0000000000000000 Ar
    velocity -1.1739391043647420 1.9452072988818307 0.1952147028645607
atom 42.0799999999999983 5.2599999999999998 0.0000000000000000 Ar
    velocity 0.6875734347341513 -1.2734434126882799 0.0519343911234355
atom 47.3399999999999963 5.2599999999999998 0.0000000000000000 Ar
    velocity -1.2693339441949780 1.3781745314667211 -0.3550102651958614
atom 52.6000000000000014 5.2599999999999998 0.0000000000000000 Ar
    velocity -0.0890238447893942 0.7208234805663135 0.2691217827935863
atom 57.8600000000000065 5.2599999999999998 0.0000000000000000 Ar
    velocity 0.2085496276570281 -1.3375578611635832 0.1365124132773970
atom 63.1199999999999903 5.2599999999999998 0.0000000000000000 Ar
    velocity -0.8607334697962877 -0.6821729917990621 0.0491508350536881
atom 0.0000000000000000 10.5199999999999996 0.0000000000000000 Ar
    velocity -0.2150607825041039 1.4512690555577996 0.9329389317538829
atom 5.2599999999999998 10.5199999999999996 0.0000000000000000 Ar
    velocity 0.0547047414508437 2.2766798511409050 0.5246721632530177
atom 10.5199999999999996 10.5199999999999996 0.0000000000000000 Ar
    velocity 0.2568880309107572 0.7356023487311059 -0.2768679300682805
atom 15.7799999999999976 10.5199999999999996 0.0000000000000000 Ar
    velocity 2.0097936611576799 -0.3761387627271481 0.7931467729167336
atom 21.0399999999999991 10.5199999999999996 0.0000000000000000 Ar
    velocity -0.2013956117020098 0.8327471017532342 -0.0964237698736316
atom 26.3000000000000007 10.5199999999999996 0.0000000000000000 Ar
    velocity 0.1496213390422041 0.7668414857346948 0.0838514549399319
atom 31.5599999999999952 10.5199999999999996 0.0000000000000000 Ar
    velocity -0.1533204571208492 -0.2715492697900745 -0.1975388555282727
atom 36.8199999999999932 10.5199999999999996 0.0000000000000000 Ar
    velocity -0.0561897952449785 -0.1758931215357481 0.9976723782749706
atom 42.0799999999999983 10.5199999999999996 0.0000000000000000 Ar
    velocity -0.2317328981634518 -0.3301934579118991 1.0177197188419165
atom 47.3399999999999963 10.5199999999999996 0.0000000000000000 Ar
    velocity 0.7660428824779516 -2.2348170780650056 0.5235683489338773
atom 52.6000000000000014 10.5199999999999996 0.0000000000000000 Ar
    velocity 0.3409281689946173 -0.0935343464502198 1.5394279864686475
atom 57.8600000000000065 10.5199999999999996 0.0000000000000000 Ar
    velocity -0.4819512575057103 0.8364201475501780 0.6269045111318483
atom 63.1199999999999903 10.5199999999999996 0.0000000000000000 Ar
    velocity -0.8692002221307042 -0.1061743859105764 0.6625542347901470
atom 0.0000000000000000 15.7799999999999994 0.0000000000000000 Ar
    velocity -1.6099685908075558 -0.3389169935794217 0.6541693205414636
atom 5.2599999999999998 15.7799999999999994 0.0000000000000000 Ar
    velocity 0.2861204521282817 0.1240892853556403 1.4736620283796291
atom 10.5199999999999996 15.7799999999999994 0.0000000000000000 Ar
    velocity 0.2563645203276281 0.6651828152494826 1.3493724006694265
atom 15.7799999999999976 15.7799999999999994 0.0000000000000000 Ar
    velocity 0.2236908293448738 1.0374237815778533 0.9843962685938059
atom 21.0399999999999991 15.7799999999999994 0.0000000000000000 Ar
    velocity -0.1940165129554067 -0.0359858649855640 -0.3535165522978367
atom 26.3000000000000007 15.7799999999999994 0.0000000000000000 Ar
    velocity -0.3275318507924349 0.5414492846576955 1.6042048300665104
atom 31.5599999999999952 15.7799999999999994 0.0000000000000000 Ar
    velocity -0.7553675545445908 -0.5442197577791260 -0.1885701325499601
atom 36.8199999999999932 15.7799999999999994 0.0000000000000000 Ar
    velocity -1.6344714286407942 0.6966475595520923 0.6053204462099562
atom 42.0799999999999983 15.7799999999999994 0.0000000000000000 Ar
    velocity -0.5469704709473906 -1.0199961957484138 -0.1210673087674011
atom 47.3399999999999963 15.7799999999999994 0.0000000000000000 Ar
    velocity -1.0186802199227765 -1.0094047399252264 0.1206718251274523
atom 52.6000000000000014 15.7799999999999994 0.0000000000000000 Ar
    velocity 1.0138749662177937 -0.1037804351012151 0.0929532630420456
atom 57.8600000000000065 15.7799999999999994 0.0000000000000000 Ar
    velocity -0.0194757125236915 0.0227906127095922 0.5426695105722735
atom 63.1199999999999903 15.7799999999999994 0.0000000000000000 Ar
    velocity -0.2266020136342009 1.4388052621658907 0.8757408251912081
atom 0.0000000000000000 21.0399999999999991 0.0000000000000000 Ar
    velocity 0.6443647493767272 -0.6900328555727173 -0.2513818954272395
atom 5.2599999999999998 21.0399999999999991 0.0000000000000000 Ar
    velocity -0.1559226353218899 0.8684615978887549 0.5225089170422215
atom 10.5199999999999996 21.0399999999999991 0.0000000000000000 Ar
    velocity -0.3035136316229526 0.2041610124990938 -1.1618008776279132
atom 15.7799999999999976 21.0399999999999991 0.0000000000000000 Ar
    velocity -0.5769410120289280 -0.8200871574795162 0.3940403303183077
atom 21.0399999999999991 21.0399999999999991 0.0000000000000000 Ar
    velocity -0.4553728182336322 0.1664874695038782 0.9808387432438495
atom 26.3000000000000007 21.0399999999999991 0.0000000000000000 Ar
    velocity 1.7720452268407028 2.2242373489734804 0.3723318327785592
atom 31.5599999999999952 21.0399999999999991 0.0000000000000000 Ar
    velocity -0.7399905842953942 0.0620558084932427 0.7175041051822261
atom 36.8199999999999932 21.0399999999999991 0.0000000000000000 Ar
    velocity -2.0274130179541872 0.1127731120404237 -0.6906723205612703
atom 42.0799999999999983 21.0399999999999991 0.0000000000000000 Ar
    velocity 0.0375174357085861 -0.1134077266201063 0.6809086093266478
atom 47.3399999999999963 21.0399999999999991 0.0000000000000000 Ar
    velocity -0.3909578363528467 0.1255826477230885 -0.8205986489373437
atom 52.6000000000000014 21.0399999999999991 0.0000000000000000 Ar
    velocity 0.5500885425030401 -1.6257200506309404 0.3528181614719517
atom 57.8600000000000065 21.0399999999999991 0.0000000000000000 Ar
    velocity 0.0677334772901217 -0.1018060728440275 0.5763173741644662
atom 63.1199999999999903 21.0399999999999991 0.0000000000000000 Ar
    velocity 0.2829349389813087 -0.3351670698083658 -0.8579831294443457
atom 0.0000000000000000 26.2999999999999972 0.0000000000000000 Ar
    velocity 1.1879450969855880 -0.8326345917632214 -0.2658175609961721
atom 5.2599999999999998 26.2999999999999972 0.0000000000000000 Ar
    velocity 0.6987579991141243 0.1264558630476965 0.0632097971884601
atom 10.5199999999999996 26.2999999999999972 0.0000000000000000 Ar
    velocity 0.4711278025555061 -0.0058922608059581 0.9388764474272688
atom 15.7799999999999976 26.2999999999999972 0.0000000000000000 Ar
    velocity 0.2904433947380012 0.7450241416132721 0.0576467491490168
atom 21.0399999999999991 26.2999999999999972 0.0000000000000000 Ar
    velocity 1.4876592009976908 0.4246553467679381 -0.3443885986643253
atom 26.3000000000000007 26.2999999999999972 0.0000000000000000 Ar
    velocity -0.3503113714246726 0.1833709088223973 0.7573997877890649
atom 31.5599999999999952 26.2999999999999972 0.0000000000000000 Ar
    velocity 0.0400133461355410 -1.1792052995492222 0.0153080231875074
atom 36.8199999999999932 26.2999999999999972 0.0000000000000000 Ar
    velocity 0.7411106361217848 0.7462116769485577 -0.3577795018797376
atom 42.0799999999999983 26.2999999999999972 0.0000000000000000 Ar
    velocity -0.7419195290971969 0.1300222696423049 -0.1871151926656730
atom 47.3399999999999963 26.2999999999999972 0.0000000000000000 Ar
    velocity -0.2781395541577426 0.1517572164345823 0.1230466079721174
atom 52.6000000000000014 26.2999999999999972 0.0000000000000000 Ar
    velocity 1.3062603309669989 -0.5882687545358781 0.8436611358871728
atom 57.8600000000000065 26.2999999999999972 0.0000000000000000 Ar
    velocity 1.1067440992854247 -0.3482378066441421 1.0508697399061853
atom 63.1199999999999903 26.2999999999999972 0.0000000000000000 Ar
    velocity 0.2141318914177853 -0.6848556889523493 -1.4057888121007951
atom 0.0000000000000000 31.5599999999999987 0.0000000000000000 Ar
    velocity -0.3586752568567826 -0.3893865518576518 -0.3038461829229664
atom 5.2599999999999998 31.5599999999999987 0.0000000000000000 Ar
    velocity 0.2252985920976742 -0.8253248831483359 -0.8759700702908052
atom 10.5199999999999996 31.5599999999999987 0.0000000000000000 Ar
    velocity -1.8678719394369869 0.1093799225348894 0.1626396351239192
atom 15.7799999999999976 31.5599999999999987 0.0000000000000000 Ar
    velocity 0.8864739275309617 0.4334642689272969 -1.7426053556912517
atom 21.0399999999999991 31.5599999999999987 0.0000000000000000 Ar
    velocity -0.1301181752819671 0.9589299233640649 -0.3065652796941595
atom 26.3000000000000007 31.5599999999999987 0.0000000000000000 Ar
    velocity -1.5118506981909536 0.3435065422398215 0.2238016748872207
atom 31.5599999999999952 31.5599999999999987 0.0000000000000000 Ar
    velocity -0.6104764168277100 0.1548303605015184 1.1455038130216715
atom 36.8199999999999932 31.5599999999999987 0.0000000000000000 Ar
    velocity -0.0247490854557370 0.0890258420143507 -1.3009375174957580
atom 42.0799999999999983 31.5599999999999987 0.0000000000000000 Ar
    velocity -0.3180681188169932 0.2539730750470854 -0.0156146986071056
atom 47.3399999999999963 31.5599999999999987 0.0000000000000000 Ar
    velocity -0.5178051445343486 0.3234851303802138 0.9532747896235080
atom 52.6000000000000014 31.5599999999999987 0.0000000000000000 Ar
    velocity 1.3967481584690031 -0.6320503432693880 -0.5367228226102839
atom 57.8600000000000065 31.5599999999999987 0.0000000000000000 Ar
    velocity 1.4507865021724557 0.0073317856444653 -1.9880753216982829
atom 63.1199999999999903 31.5599999999999987 0.0000000000000000 Ar
    velocity -0.1192305714828719 0.8448392919809322 -0.4886793888994146
atom 0.0000000000000000 36.8200000000000003 0.0000000000000000 Ar
    velocity -0.1550079109617096 -0.9765444534897080 0.2979347433040440
atom 5.2599999999999998 36.8200000000000003 0.0000000000000000 Ar
    velocity 0.8657374528311682 -0.6975824221600717 1.0727522420840510
atom 10.5199999999999996 36.8200000000000003 0.0000000000000000 Ar
    velocity -0.1369863114596487 -0.0678049040670158 -0.5158728051588959
atom 15.7799999999999976 36.8200000000000003 0.0000000000000000 Ar
    velocity 0.2522587508101292 0.2112866234928435 -0.2578815281583899
atom 21.0399999999999991 36.8200000000000003 0.0000000000000000 Ar
    velocity 0.1990469230265183 0.6435491176256375 1.7110903903819337
atom 26.3000000000000007 36.8200000000000003 0.0000000000000000 Ar
    velocity -0.7374418285480095 -0.4122556255476379 -0.6842732250872153
atom 31.5599999999999952 36.8200000000000003 0.0000000000000000 Ar
    velocity 0.7474235382751344 -1.3034670345411585 -1.0589399580688128
atom 36.8199999999999932 36.8200000000000003 0.0000000000000000 Ar
    velocity -2.2868810139978595 -0.4621482108252806 0.6620093737009153
atom 42.0799999999999983 36.8200000000000003 0.0000000000000000 Ar
    velocity -0.5728988756410708 0.0977127510646454 -1.5293989530562511
atom 47.3399999999999963 36.8200000000000003 0.0000000000000000 Ar
    velocity 0.7526920075607476 -1.0041312468870001 -0.3734590227166547
atom 52.6000000000000014 36.8200000000000003 0.0000000000000000 Ar
    velocity -0.9257347003108283 0.1288616412255419 1.6984043918478025
atom 57.8600000000000065 36.8200000000000003 0.0000000000000000 Ar
    velocity -0.6099444090691558 -1.0507029568897703 -0.1814611918122110
atom 63.1199999999999903 36.8200000000000003 0.0000000000000000 Ar
    velocity -0.1824133931566344 0.2364468726242377 0.3715699716998341
atom 0.0000000000000000 42.0799999999999983 0.0000000000000000 Ar
    velocity -0.4687853839151301 0.7120805057506655 -0.9448971095385291
atom 5.2599999999999998 42.0799999999999983 0.0000000000000000 Ar
    velocity 0.4138803221724997 1.5277323553243065 0.0497338421192646
atom 10.5199999999999996 42.0799999999999983 0.0000000000000000 Ar
    velocity -0.2918118225257977 1.3316859691944800 -0.2213981713184661
atom 15.7799999999999976 42.0799999999999983 0.0000000000000000 Ar
    velocity 0.9226395859513834 0.2669647766932643 0.8471144950843352
atom 21.0399999999999991 42.0799999999999983 0.0000000000000000 Ar
    velocity -1.0983364097039081 0.4079372255751033 0.5167299994936814
atom 26.3000000000000007 42.0799999999999983 0.0000000000000000 Ar
    velocity 0.0393427927053993 0.2541013518697441 0.0042150236145223
atom 31.5599999999999952 42.0799999999999983 0.0000000000000000 Ar
    velocity 1.1525997475862022 -0.6629997055174669 -0.2910202517803489
atom 36.8199999999999932 42.0799999999999983 0.0000000000000000 Ar
    velocity 0.4827725102563252 -0.7089308025880438 0.5298422012023397
atom 42.0799999999999983 42.0799999999999983 0.0000000000000000 Ar
    velocity -0.8906488897785023 0.5353559267480789 1.8557872981710579
atom 47.3399999999999963 42.0799999999999983 0.0000000000000000 Ar
    velocity -0.7241125547003036 -1.5408371432954138 -0.2684767546676022
atom 52.6000000000000014 42.0799999999999983 0.0000000000000000 Ar
    velocity -0.3894894318797426 -0.4064207464310245 -0.3821131758809787
atom 57.8600000000000065 42.0799999999999983 0.0000000000000000 Ar
    velocity 0.1456447254135902 -1.4678785414990858 0.3836239361257685
atom 63.1199999999999903 42.0799999999999983 0.0000000000000000 Ar
    velocity -0.3046223944800735 -0.5802048158557108 1.0742306248972753
atom 0.0000000000000000 47.3399999999999963 0.0000000000000000 Ar
    velocity 0.0908745385692115 -0.5942301428712252 0.6329629955183772
atom 5.2599999999999998 47.3399999999999963 0.0000000000000000 Ar
    velocity -0.6811212816842882 -0.2441023041649816 -0.4377164368085775
atom 10.5199999999999996 47.3399999999999963 0.0000000000000000 Ar
    velocity -0.8570537998487290 0.0567976817875197 -0.3071303313700176
atom 15.7799999999999976 47.3399999999999963 0.0000000000000000 Ar
    velocity 0.0612715950936876 0.8400544819466418 -0.5660568871649456
atom 21.0399999999999991 47.3399999999999963 0.0000000000000000 Ar
    velocity 0.1891572194795480 -0.0923783542766949 -0.3420046616869237
atom 26.3000000000000007 47.3399999999999963 0.0000000000000000 Ar
    velocity 0.2931717731276935 -0.2299100535286573 0.1459413805910487
atom 31.5599999999999952 47.3399999999999963 0.0000000000000000 Ar
    velocity -0.0320156823147634 0.6060476813938533 -0.2989939922364725
atom 36.8199999999999932 47.3399999999999963 0.0000000000000000 Ar
    velocity 0.0982322912396224 1.3817698216757814 0.1252475688764607
atom 42.0799999999999983 47.3399999999999963 0.0000000000000000 Ar
    velocity 0.0384598015121337 -0.8723804049465597 0.1794691017498999
atom 47.3399999999999963 47.3399999999999963 0.0000000000000000 Ar
    velocity -0.1704565979522598 -0.4635422072397662 -0.7918597417268274
atom 52.6000000000000014 47.3399999999999963 0.0000000000000000 Ar
    velocity -0.4229106308047862 -0.9219803290943971 -0.6337933706101426
atom 57.8600000000000065 47.3399999999999963 0.0000000000000000 Ar
    velocity 1.3185072196385847 0.1322644402041797 0.2271164026932845
atom 63.1199999999999903 47.3399999999999963 0.0000000000000000 Ar
    velocity 0.2100571391319736 -0.6493283685851555 -1.2145026989064627
atom 0.0000000000000000 52.5999999999999943 0.0000000000000000 Ar
    velocity 0.1812438880638292 -0.6034355971959228 -0.0872682793563782
atom 5.2599999999999998 52.5999999999999943 0.0000000000000000 Ar
    velocity 0.3409832670638554 0.1093601717536841 -1.2160736335970623
atom 10.5199999999999996 52.5999999999999943 0.0000000000000000 Ar
    velocity 1.1250642764661869 -0.0404571055951988 -0.2787853769512725
atom 15.7799999999999976 52.5999999999999943 0.0000000000000000 Ar
    velocity -0.2660986469127312 -0.2961291257806110 0.1631540832293045
atom 21.0399999999999991 52.5999999999999943 0.0000000000000000 Ar
    velocity -0.1954145080951929 -0.6125268565308065 -0.2331661920546563
atom 26.3000000000000007 52.5999999999999943 0.0000000000000000 Ar
    velocity -0.7970493862722758 -0.2030365940192821 0.2291652320351311
atom 31.5599999999999952 52.5999999999999943 0.0000000000000000 Ar
    velocity 1.5785201532968343 -0.3304641795399388 1.7127279629003813
atom 36.8199999999999932 52.5999999999999943 0.0000000000000000 Ar
    velocity 0.0281525451550874 -0.3858538641011910 -0.3782170261996178
atom 42.0799999999999983 52.5999999999999943 0.0000000000000000 Ar
    velocity -1.3308191601843968 1.1484283617780338 -0.0602702533334728
atom 47.3399999999999963 52.5999999999999943 0.0000000000000000 Ar
    velocity 0.5556934185369626 -0.0113249662256653 0.5792056837746761
atom 52.6000000000000014 52.5999999999999943 0.0000000000000000 Ar
    velocity 1.8024602921934538 0.7889648200610487 1.3700605183661065
atom 57.8600000000000065 52.5999999999999943 0.0000000000000000 Ar
    velocity 0.1588937569543851 0.6533467562401774 -0.6943554603243057
atom 63.1199999999999903 52.5999999999999943 0.0000000000000000 Ar
    velocity -0.3764592615256524 -1.3311932603306800 1.1169592099021464
atom 0.0000000000000000 57.8599999999999994 0.0000000000000000 Ar
    velocity 0.7437242772021815 0.9952352824812479 -0.2534808475968350
atom 5.2599999999999998 57.8599999999999994 0.0000000000000000 Ar
    velocity 0.5420110988207794 -0.0146385035529371 -1.1124904759085847
atom 10.5199999999999996 57.8599999999999994 0.0000000000000000 Ar
    velocity -1.0459450544426994 1.3414619157095824 -0.1231291225322245
atom 15.7799999999999976 57.8599999999999994 0.0000000000000000 Ar
    velocity -0.1036624180993917 -0.8597892931726061 0.6783154013528858
atom 21.0399999999999991 57.8599999999999994 0.0000000000000000 Ar
    velocity -0.5620894961345406 0.1447822994886372 -0.6732566967130142
atom 26.3000000000000007 57.8599999999999994 0.0000000000000000 Ar
    velocity 0.7161934938945923 -0.8030034133056430 0.0358864770761116
atom 31.5599999999999952 57.8599999999999994 0.0000000000000000 Ar
    velocity 0.5310126638250130 -1.3074169113931033 0.3791180943474228
atom 36.8199999999999932 57.8599999999999994 0.0000000000000000 Ar
    velocity -0.0356559950623778 -1.0821816010988032 0.5599273827789568
atom 42.0799999999999983 57.8599999999999994 0.0000000000000000 Ar
    velocity 0.0812247125274752 -0.4632905144920600 1.2851716665140005
atom 47.3399999999999963 57.8599999999999994 0.0000000000000000 Ar
    velocity -0.0942714967001957 -0.3606399639596519 -0.0516909796626495
atom 52.6000000000000014 57.8599999999999994 0.0000000000000000 Ar
    velocity -0.7923266622640605 -0.2639223179129718 0.6928743707730876
atom 57.8600000000000065 57.8599999999999994 0.0000000000000000 Ar
    velocity 0.9920538582364651 1.1246062522721589 1.0349169616283538
atom 63.1199999999999903 57.8599999999999994 0.0000000000000000 Ar
    velocity -0.6683773547870178 -0.6847646141518492 1.9835165491659137
atom 0.0000000000000000 63.1199999999999974 0.0000000000000000 Ar
    velocity 0.2503094433373508 -0.6563667870326734 -0.8471619087076141
atom 5.2599999999999998 63.1199999999999974 0.0000000000000000 Ar
    velocity -0.7168452677223250 0.4114408914805932 -0.0148831490290194
atom 10.5199999999999996 63.1199999999999974 0.0000000000000000 Ar
    velocity -0.3679830253895460 -0.8427355599315365 -0.4446899117009668
atom 15.7799999999999976 63.1199999999999974 0.0000000000000000 Ar
    velocity -0.6023741659802236 -0.3381408986037854 -1.5158941493968927
atom 21.0399999999999991 63.1199999999999974 0.0000000000000000 Ar
    velocity 0.6569650883976440 1.4529324263934449 -0.8616650255366423
atom 26.3000000000000007 63.1199999999999974 0.0000000000000000 Ar
    velocity -0.3552601586933370 0.6948408247201371 -0.0330937000252006
atom 31.5599999999999952 63.1199999999999974 0.0000000000000000 Ar
    velocity -0.3828375231152979 -0.2628807555295847 -1.0769258134480595
atom 36.8199999999999932 63.1199999999999974 0.0000000000000000 Ar
    velocity -0.6259921299060562 -0.6081100770543217 -0.2660369371958230
atom 42.0799999999999983 63.1199999999999974 0.0000000000000000 Ar
    velocity -2.2764363585207605 0.1425093535930757 1.0648584626475948
atom 47.3399999999999963 63.1199999999999974 0.0000000000000000 Ar
    velocity -0.0427103359490332 -1.1062555578083939 0.0576757761658507
atom 52.6000000000000014 63.1199999999999974 0.0000000000000000 Ar
    velocity -0.1686524614351038 -0.9868990287505263 0.2427111007691313
atom 57.8600000000000065 63.1199999999999974 0.0000000000000000 Ar
    velocity -0.3427720104286268 -1.7048622948138237 0.4416149193171299
atom 63.1199999999999903 63.1199999999999974 0.0000000000000000 Ar
    velocity -0.1980437843024416 0.6580146742784433 -1.3047878989863511
atom 0.0000000000000000 68.3800000000000097 0.0000000000000000 Ar
    velocity -0.1423556324343478 0.7447825093138845 0.1128928811930038
atom 5.2599999999999998 68.3800000000000097 0.0000000000000000 Ar
    velocity 0.3565276521869925 0.5559227396133399 0.3861686798936335
atom 10.5199999999999996 68.3800000000000097 0.0000000000000000 Ar
    velocity 0.6569368144187800 -2.0694857300144847 0.6776173202174847
atom 15.7799999999999976 68.3800000000000097 0.0000000000000000 Ar
    velocity -0.5172304187918388 -0.0224464680456526 -0.1887408418867275
atom 21.0399999999999991 68.3800000000000097 0.0000000000000000 Ar
    velocity -2.0848911366925904 0.7704920765171174 -0.1816148947536056
atom 26.3000000000000007 68.3800000000000097 0.0000000000000000 Ar
    velocity 0.9721327389815010 1.8483343809051207 -0.1503504679249450
atom 31.5599999999999952 68.3800000000000097 0.0000000000000000 Ar
    velocity 0.2598810889240213 0.4339533888257111 0.7080490772708352
atom 36.8199999999999932 68.3800000000000097 0.0000000000000000 Ar
    velocity -0.3023515538775932 -1.1955239356862855 -0.8718548750269052
atom 42.0799999999999983 68.3800000000000097 0.0000000000000000 Ar
    velocity 0.7610369771884712 -0.2924310653274236 -1.0756199676285758
atom 47.3399999999999963 68.3800000000000097 0.0000000000000000 Ar
    velocity 0.2546819515961800 -0.3416274066227136 1.5625205638843429
atom 52.6000000000000014 68.3800000000000097 0.0000000000000000 Ar
    velocity -1.5900755849455332 0.8161129990911260 0.4990639446732569
atom 57.8600000000000065 68.3800000000000097 0.0000000000000000 Ar
    velocity 0.4594667436679317 0.2237571605272078 0.2828647099043410
atom 63.1199999999999903 68.3800000000000097 0.0000000000000000 Ar
    velocity 0.3107645821766787 0.5545763147509538 0.3803376019538566
atom 0.0000000000000000 0.0000000000000000 5.2599999999999998 Ar
    velocity 1.7636378907010799 -0.5740596106185591 -0.9135713238768698
atom 5.2599999999999998 0.0000000000000000 5.2599999999999998 Ar
    velocity 0.0223461614817276 -0.2400166952187314 -0.7578222657577846
atom 10.5199999999999996 0.0000000000000000 5.2599999999999998 Ar
    velocity -0.9238026335846349 0.7075914211688747 0.2035672388799875
atom 15.7799999999999976 0.0000000000000000 5.2599999999999998 Ar
    velocity -0.3302742444040822 0.5931498778348440 1.2902751841732494
atom 21.0399999999999991 0.0000000000000000 5.2599999999999998 Ar
    velocity 0.4385227508326960 0.5313821077112708 -0.6923659201500592
atom 26.3000000000000007 0.0000000000000000 5.2599999999999998 Ar
    velocity -1.2193339545997515 -0.7978592426287504 0.6993408769446420
atom 31.5599999999999952 0.0000000000000000 5.2599999999999998 Ar
    velocity 0.7458393344798351 0.7246730224071466 -0.6553696429300386
atom 36.8199999999999932 0.0000000000000000 5.2599999999999998 Ar
    velocity -0.4110723673617374 -0.2475640585498045 -1.2253736957839416
atom 42.0799999999999983 0.0000000000000000 5.2599999999999998 Ar
    velocity -0.0302691324610827 -0.2843713417888010 -1.2321655207668600
atom 47.3399999999999963 0.0000000000000000 5.2599999999999998 Ar
    velocity -1.0711716571556287 0.8432441421200781 0.0329870568907549
atom 52.6000000000000014 0.0000000000000000 5.2599999999999998 Ar
    velocity -0.4067080114218743 0.1540924312152502 -0.5474436277589824
atom 57.8600000000000065 0.0000000000000000 5.2599999999999998 Ar
    velocity -0.1136482851240850 0.6618640037231055 -0.0622326787689362
atom 63.1199999999999903 0.0000000000000000 5.2599999999999998 Ar
    velocity -0.6320925346152821 0.7432117732753403 1.2857112594495597
atom 0.0000000000000000 5.2599999999999998 5.2599999999999998 Ar
    velocity 0.0372193630374129 0.5996401876787786 1.6384038656501738
atom 5.2599999999999998 5.2599999999999998 5.2599999999999998 Ar
    velocity -0.0592033164101216 1.0925027530023255 0.7765203123076326
atom 10.5199999999999996 5.2599999999999998 5.2599999999999998 Ar
    velocity -1.0471847832025889 0.4763972349191163 0.8931469554091632
atom 15.7799999999999976 5.2599999999999998 5.2599999999999998 Ar
    velocity -0.8390547469600679 0.6879785372497629 -0.1291845278431161
atom 21.0399999999999991 5.2599999999999998 5.2599999999999998 Ar
    velocity 1.5164300419539305 0.0076785295027455 0.0727909182075127
atom 26.3000000000000007 5.2599999999999998 5.2599999999999998 Ar
    velocity 0.1677369561272078 -0.4256386853881852 0.5971579886208024
atom 31.5599999999999952 5.2599999999999998 5.2599999999999998 Ar
    velocity -0.4332026967802654 -0.5768427831439128 0.6703189846239295
atom 36.8199999999999932 5.2599999999999998 5.2599999999999998 Ar
    velocity 0.6761533451283001 -1.3403589888483463 -0.2655553083257763
atom 42.0799999999999983 5.2599999999999998 5.2599999999999998 Ar
    velocity -0.1204027083403661 -2.7531454466830931 1.0290158445433177
atom 47.3399999999999963 5.2599999999999998 5.2599999999999998 Ar
    velocity 0.5471480113771773 0.4879951319279097 -0.4071700818973226
atom 52.6000000000000014 5.2599999999999998 5.2599999999999998 Ar
    velocity -1.2626464719231756 -0.6308863778850077 1.7009158755933040
atom 57.8600000000000065 5.2599999999999998 5.2599999999999998 Ar
    velocity 1.2778285542991861 0.8230367721012355 1.1847060216305512
atom 63.1199999999999903 5.2599999999999998 5.2599999999999998 Ar
    velocity -0.0144751206341966 -1.0652750296634967 0.4726907022229807
atom 0.0000000000000000 10.5199999999999996 5.2599999999999998 Ar
    velocity -0.4393741522240719 -0.1264843288204213 0.3811056641378341
atom 5.2599999999999998 10.5199999999999996 5.2599999999999998 Ar
    velocity 0.4186697641264691 1.4415807640266605 -1.5415475650588628
atom 10.5199999999999996 10.5199999999999996 5.2599999999999998 Ar
    velocity 1.4620863419627446 -1.3405605834481518 0.9624345063605921
atom 15.7799999999999976 10.5199999999999996 5.2599999999999998 Ar
    velocity -0.4199689300003065 -0.3957849405907033 -0.9934709270517191
atom 21.0399999999999991 10.5199999999999996 5.2599999999999998 Ar
    velocity 0.2316787573367701 0.2147225009255083 0.3745034959315126
atom 26.3000000000000007 10.5199999999999996 5.2599999999999998 Ar