#=======================================================
# FHI-aims file: argon_16384_30k.in
# Created using the Atomic Simulation Environment (ASE)
# Tue Jun 15 19:25:05 2021
#=======================================================
lattice_vector 84.1599999999999966 0.0000000000000000 0.0000000000000000 
lattice_vector 0.0000000000000000 84.1599999999999966 0.0000000000000000 
lattice_vector 0.0000000000000000 0.0000000000000000 84.1599999999999966 
atom 0.0000000000000000 0.0000000000000000 0.0000000000000000 Ar
    velocity -0.4901033327297064 -0.6725184700534848 -0.6444034504547250
atom 5.2599999999999998 0.0000000000000000 0.0000000000000000 Ar
    velocity 0.4540555330727884 0.0018674845124201 0.3058498325221480
atom 10.5199999999999996 0.0000000000000000 0.0000000000000000 Ar
    velocity -0.2348274605832239 0.5952276270610375 0.0810536701601921
atom 15.7799999999999994 0.0000000000000000 0.0000000000000000 Ar
    velocity -0.6331622571537772 0.2813622217528611 0.5554293979706866
atom 21.0399999999999991 0.0000000000000000 0.0000000000000000 Ar
    velocity 0.2562003339483304 0.7238008512682816 -0.7053775548807324
atom 26.2999999999999972 0.0000000000000000 0.0000000000000000 Ar
    velocity 1.5447564122028696 -0.1523598429543681 -0.3944735871354267
atom 31.5599999999999987 0.0000000000000000 0.0000000000000000 Ar
    velocity 0.2728275420632415 0.0978346800069960 0.1195846580111021
atom 36.8200000000000003 0.0000000000000000 0.0000000000000000 Ar
    velocity 0.0958306946206122 -1.0598558152419717 1.0516066144043439
atom 42.0799999999999983 0.0000000000000000 0.0000000000000000 Ar
    velocity -0.5455675313144132 0.1046833768641886 0.5392736089052125
atom 47.3399999999999963 0.0000000000000000 0.0000000000000000 Ar
    velocity 0.6003222802918488 0.2516281126523942 0.6902058887518314
atom 52.5999999999999943 0.0000000000000000 0.0000000000000000 Ar
    velocity 1.0136248184279928 -0.1550287312815176 0.5012623314432681
atom 57.8599999999999994 0.0000000000000000 0.0000000000000000 Ar
    velocity 0.0132325994464684 0.0384826968721399 0.6404655157817043
atom 63.1199999999999974 0.0000000000000000 0.0000000000000000 Ar
    velocity -0.9611077668972756 0.6940913382774727 -1.5760156022049010
atom 68.3799999999999955 0.0000000000000000 0.0000000000000000 Ar
    velocity 1.4510803605087581 -0.5245326702135862 0.1488418063678941
atom 73.6400000000000006 0.0000000000000000 0.0000000000000000 Ar
    velocity 0.6674288458894642 0.1419020079327182 0.3038249361180907
atom 78.8999999999999915 0.0000000000000000 0.0000000000000000 Ar
    velocity 0.0005345596440489 0.6036712994453989 1.3127017310122182
atom 0.0000000000000000 5.2599999999999998 0.0000000000000000 Ar
    velocity 0.2695525964955312 -0.0615816352210530 -0.6199908429645373
atom 5.2599999999999998 5.2599999999999998 0.0000000000000000 Ar
    velocity 0.2589678264888543 1.4436477028058465 -0.6917628516183858
atom 10.5199999999999996 5.2599999999999998 0.0000000000000000 Ar
    velocity -1.0096361950600594 -0.1133322246638376 2.1167724611194068
atom 15.7799999999999994 5.2599999999999998 0.0000000000000000 Ar
    velocity -0.7887271062484135 -0.1399614381774092 -0.1818698353115066
atom 21.0399999999999991 5.2599999999999998 0.0000000000000000 Ar
    velocity -1.0098371208657480 0.6956070979699935 0.1741294114921034
atom 26.2999999999999972 5.2599999999999998 0.0000000000000000 Ar
    velocity 0.0191858250775335 -0.2475229219366903 -0.5412325962244861
atom 31.5599999999999987 5.2599999999999998 0.0000000000000000 Ar
    velocity -1.5380779785792924 0.1440080282726268 1.2900220279553514
atom 36.8200000000000003 5.2599999999999998 0.0000000000000000 Ar
    velocity 0.1332038549740245 -0.6947599477866985 0.4013095439252313
atom 42.0799999999999983 5.2599999999999998 0.0000000000000000 Ar
    velocity 1.4413870816292533 0.5294246478478053 0.4383175953776592
atom 47.3399999999999963 5.2599999999999998 0.0000000000000000 Ar
    velocity 0.1048286799671398 0.6692743279187467 -0.4436510931699013
atom 52.5999999999999943 5.2599999999999998 0.0000000000000000 Ar
    velocity -0.6547473357207185 -1.3914847310033731 -1.3454855104503116
atom 57.8599999999999994 5.2599999999999998 0.0000000000000000 Ar
    velocity 0.1911420208604562 -0.1749326338772579 -0.2601770000320244
atom 63.1199999999999974 5.2599999999999998 0.0000000000000000 Ar
    velocity 1.8015138105340811 0.8557574288832132 1.2710871394024530
atom 68.3799999999999955 5.2599999999999998 0.0000000000000000 Ar
    velocity -0.0143010404630333 -0.1061417784107160 0.3536708022706128
atom 73.6400000000000006 5.2599999999999998 0.0000000000000000 Ar
    velocity -0.3621694180145227 0.0599106056909007 -0.9124873176008587
atom 78.8999999999999915 5.2599999999999998 0.0000000000000000 Ar
    velocity -0.2910473556810946 -0.6466079854290979 0.7760847814405899
atom 0.0000000000000000 10.5199999999999996 0.0000000000000000 Ar
    velocity -0.5617061494308715 -1.9170206952571451 -1.3992376626197778
atom 5.2599999999999998 10.5199999999999996 0.0000000000000000 Ar
    velocity 1.3562640363446956 1.1258482400152092 -0.9065334914613518
atom 10.5199999999999996 10.5199999999999996 0.0000000000000000 Ar
    velocity -0.0870913250814745 0.4411235855923616 -1.4078550275952826
atom 15.7799999999999994 10.5199999999999996 0.0000000000000000 Ar
    velocity -0.0954609267947520 0.7291386287004797 -0.5069379381106055
atom 21.0399999999999991 10.5199999999999996 0.0000000000000000 Ar
    velocity 1.0887822528933822 -0.5559280149504399 -0.7049419623363432
atom 26.2999999999999972 10.5199999999999996 0.0000000000000000 Ar
    velocity 0.0933007641306013 -0.1727881756655480 0.4427616797268041
atom 31.5599999999999987 10.5199999999999996 0.0000000000000000 Ar
    velocity -0.8586417812336979 0.5213460177057309 -0.2230743626419884
atom 36.8200000000000003 10.5199999999999996 0.0000000000000000 Ar
    velocity -0.5313088717332946 -1.1202890588705259 0.3991417513254512
atom 42.0799999999999983 10.5199999999999996 0.0000000000000000 Ar
    velocity -1.1345506240208343 -0.6251730279660751 -0.0707125619967646
atom 47.3399999999999963 10.5199999999999996 0.0000000000000000 Ar
    velocity -2.4483376562038623 0.6077997274675278 2.0266082505093186
atom 52.5999999999999943 10.5199999999999996 0.0000000000000000 Ar
    velocity -0.1569357885101388 1.2290431046396131 -0.1025723618020370
atom 57.8599999999999994 10.5199999999999996 0.0000000000000000 Ar
    velocity -0.3146409561574093 -0.6161749580158850 0.5476994941010556
atom 63.1199999999999974 10.5199999999999996 0.0000000000000000 Ar
    velocity -0.1059936850766080 -0.7164495989671953 0.5348323352944623
atom 68.3799999999999955 10.5199999999999996 0.0000000000000000 Ar
    velocity 0.8606952339664987 -0.5812135917690476 0.1238052430834701
atom 73.6400000000000006 10.5199999999999996 0.0000000000000000 Ar
    velocity -1.0913576912147034 0.2223270930327700 -0.6364433393287294
atom 78.8999999999999915 10.5199999999999996 0.0000000000000000 Ar
    velocity 0.2356309873142206 -0.4004592468446262 -1.8522256856216259
atom 0.0000000000000000 15.7799999999999994 0.0000000000000000 Ar
    velocity 1.0879944090275466 -0.2239223129596121 1.0657207074710462
atom 5.2599999999999998 15.7799999999999994 0.0000000000000000 Ar
    velocity -0.4727180404523589 -0.2316438528053744 0.0925734528482977
atom 10.5199999999999996 15.7799999999999994 0.0000000000000000 Ar
    velocity -0.0029037780311896 -0.2212879112355718 0.8174816114659521
atom 15.7799999999999994 15.7799999999999994 0.0000000000000000 Ar
    velocity 0.5438546822359085 0.4421275069769247 -0.5173655003733266
atom 21.0399999999999991 15.7799999999999994 0.0000000000000000 Ar
    velocity -1.1268418134976572 -0.9012731612717659 -0.1261834991103923
atom 26.2999999999999972 15.7799999999999994 0.0000000000000000 Ar
    velocity -1.2359186925149419 0.2954468944753253 0.7874962894620665
atom 31.5599999999999987 15.7799999999999994 0.0000000000000000 Ar
    velocity -0.0903213638665409 -1.0333423988212294 0.8253494659647582
atom 36.8200000000000003 15.7799999999999994 0.0000000000000000 Ar
    velocity 0.9655900579960035 -1.0775279371033617 0.3415992037540082
atom 42.0799999999999983 15.7799999999999994 0.0000000000000000 Ar
    velocity 0.0790738281222451 -1.3835150561458025 0.2303654910113482
atom 47.3399999999999963 15.7799999999999994 0.0000000000000000 Ar
    velocity 0.4875091046331759 -0.0541429770545455 1.3730454718985927
atom 52.5999999999999943 15.7799999999999994 0.0000000000000000 Ar
    velocity 0.6759837669682909 -0.2007405060612492 -0.2775008718737104
atom 57.8599999999999994 15.7799999999999994 0.0000000000000000 Ar
    velocity -0.7776728950769253 0.3396177008820710 -1.1298791606603351
atom 63.1199999999999974 15.7799999999999994 0.0000000000000000 Ar
    velocity -0.4101361359366518 -1.1236281420834198 -0.4142732542967786
atom 68.3799999999999955 15.7799999999999994 0.0000000000000000 Ar
    velocity 0.0148779334071566 1.6815377748175333 0.6658543798565449
atom 73.6400000000000006 15.7799999999999994 0.0000000000000000 Ar
    velocity 0.1600430288327027 -0.1973215234626857 1.0641111035927833
atom 78.8999999999999915 15.7799999999999994 0.0000000000000000 Ar
    velocity -0.3330031401360644 0.9277886557482011 -0.0512837519161411
atom 0.0000000000000000 21.0399999999999991 0.0000000000000000 Ar
    velocity -0.3023182751310659 -0.4831702470816573 0.4767615310514566
atom 5.2599999999999998 21.0399999999999991 0.0000000000000000 Ar
    velocity 0.7479099104635332 0.2847050895960148 0.9081121239224651
atom 10.5199999999999996 21.0399999999999991 0.0000000000000000 Ar
    velocity 0.7743832997780804 0.5159093902740096 0.1068720850566047
atom 15.7799999999999994 21.0399999999999991 0.0000000000000000 Ar
    velocity 0.6282851835397827 -0.1612539459104504 0.1005543917138392
atom 21.0399999999999991 21.0399999999999991 0.0000000000000000 Ar
    velocity -0.8326659567238268 -0.6016919899052681 0.2308572236915826
atom 26.2999999999999972 21.0399999999999991 0.0000000000000000 Ar
    velocity -0.6898249637682876 0.8757929434495694 -0.3819122307134403
atom 31.5599999999999987 21.0399999999999991 0.0000000000000000 Ar
    velocity -1.0260046894664698 -0.3334124027297172 -0.2400769995245506
atom 36.8200000000000003 21.0399999999999991 0.0000000000000000 Ar
    velocity 1.4991938466133212 0.2246991821182588 -0.3574733493702473
atom 42.0799999999999983 21.0399999999999991 0.0000000000000000 Ar
    velocity 0.8881888453528083 -1.0250584165108887 0.6082583906913224
atom 47.3399999999999963 21.0399999999999991 0.0000000000000000 Ar
    velocity 0.5952623812315841 -0.9922972193432456 0.1720048632680436
atom 52.5999999999999943 21.0399999999999991 0.0000000000000000 Ar
    velocity 2.2430116073022961 -0.0969130191898444 0.6661217447658730
atom 57.8599999999999994 21.0399999999999991 0.0000000000000000 Ar
    velocity -0.7326507840470032 0.5499153318640642 -0.1409139772661549
atom 63.1199999999999974 21.0399999999999991 0.0000000000000000 Ar
    velocity -0.3035814842736234 -0.9164076077451323 0.1168934198116432
atom 68.3799999999999955 21.0399999999999991 0.0000000000000000 Ar
    velocity 0.7067627667657808 -0.7837418405575883 -0.2516899062602429
atom 73.6400000000000006 21.0399999999999991 0.0000000000000000 Ar
    velocity -0.6015823667439025 1.2017357305132392 -1.1037800631351167
atom 78.8999999999999915 21.0399999999999991 0.0000000000000000 Ar
    velocity 1.1022892812617553 1.8085932302936147 0.5660809353892057
atom 0.0000000000000000 26.2999999999999972 0.0000000000000000 Ar
    velocity 0.3936322771747751 -0.1250164520887277 0.1021575698026580
atom 5.2599999999999998 26.2999999999999972 0.0000000000000000 Ar
    velocity 0.6458505045652680 -0.1441218297039924 1.1643674605069445
atom 10.5199999999999996 26.2999999999999972 0.0000000000000000 Ar
    velocity 0.5803298387816094 0.5026719682514048 -1.4010289213916713
atom 15.7799999999999994 26.2999999999999972 0.0000000000000000 Ar
    velocity -1.1371227048401715 0.1658356506641357 -1.9828589400301151
atom 21.0399999999999991 26.2999999999999972 0.0000000000000000 Ar
    velocity 1.2429518434366542 1.0754381368850885 2.4123347384685325
atom 26.2999999999999972 26.2999999999999972 0.0000000000000000 Ar
    velocity -0.3264340736475103 0.3605413934137388 -0.2926348300906625
atom 31.5599999999999987 26.2999999999999972 0.0000000000000000 Ar
    velocity 0.1376463874327487 1.7726095749472790 -0.8436637989137726
atom 36.8200000000000003 26.2999999999999972 0.0000000000000000 Ar
    velocity 0.2554607916376072 1.6350981900735091 -0.1176324759473096
atom 42.0799999999999983 26.2999999999999972 0.0000000000000000 Ar
    velocity -0.7398255005475688 0.5464771809868985 0.6887045419174261
atom 47.3399999999999963 26.2999999999999972 0.0000000000000000 Ar
    velocity -1.9929154468217292 -0.2166136612878736 0.2497556445386075
atom 52.5999999999999943 26.2999999999999972 0.0000000000000000 Ar
    velocity -0.2574567051115838 -0.2156381648574206 0.5203094524698150
atom 57.8599999999999994 26.2999999999999972 0.0000000000000000 Ar
    velocity 0.5449844650639775 -0.0296848719900410 -0.4020746759250758
atom 63.1199999999999974 26.2999999999999972 0.0000000000000000 Ar
    velocity 0.0443659585555314 -1.0500408634028491 0.1036410317818897
atom 68.3799999999999955 26.2999999999999972 0.0000000000000000 Ar
    velocity 1.3040765223208393 -0.9554227562557913 0.0245329088994253
atom 73.6400000000000006 26.2999999999999972 0.0000000000000000 Ar
    velocity 0.0837903555384909 -0.1463346625525181 -0.8488842441662113
atom 78.8999999999999915 26.2999999999999972 0.0000000000000000 Ar
    velocity -0.7748286757049681 0.2194054895378005 -0.0431207408410967
atom 0.0000000000000000 31.5599999999999987 0.0000000000000000 Ar
    velocity 0.9230287906552004 0.1894042458391497 -2.0636789761594394
atom 5.2599999999999998 31.5599999999999987 0.0000000000000000 Ar
    velocity -3.0226128059367814 0.6197726555237452 0.4502682434137540
atom 10.5199999999999996 31.5599999999999987 0.0000000000000000 Ar
    velocity -0.8583617395083222 0.0296709514945125 -0.9820888903154554
atom 15.7799999999999994 31.5599999999999987 0.0000000000000000 Ar
    velocity -0.8388218729090607 0.7686832109066968 -0.1077909006918741
atom 21.0399999999999991 31.5599999999999987 0.0000000000000000 Ar
    velocity -0.8151527860345467 -0.5377834606189794 -1.1305057629170776
atom 26.2999999999999972 31.5599999999999987 0.0000000000000000 Ar
    velocity 0.5062491636925814 -0.1843781926078978 0.6678900952302681
atom 31.5599999999999987 31.5599999999999987 0.0000000000000000 Ar
    velocity -0.2573679820721806 -0.2089897439964828 0.6690069573065599
atom 36.8200000000000003 31.5599999999999987 0.0000000000000000 Ar
    velocity -1.0659327472177587 0.1955725133021763 0.7546557066848517
atom 42.0799999999999983 31.5599999999999987 0.0000000000000000 Ar
    velocity -0.4228421156776487 -0.9364312854267509 0.2161889443687486
atom 47.3399999999999963 31.5599999999999987 0.0000000000000000 Ar
    velocity 1.3411500280847126 -0.1319845683423066 -0.1448241991043689
atom 52.5999999999999943 31.5599999999999987 0.0000000000000000 Ar
    velocity 1.1035583256655841 -0.8727695701486929 -0.4761583360533101
atom 57.8599999999999994 31.5599999999999987 0.0000000000000000 Ar
    velocity -0.2148425245066632 0.4312660471538603 0.3588245600802422
atom 63.1199999999999974 31.5599999999999987 0.0000000000000000 Ar
    velocity 0.4741094317726928 0.1053592103937325 0.3943619277015710
atom 68.3799999999999955 31.5599999999999987 0.0000000000000000 Ar
    velocity -0.1420125403870324 0.9656075499377647 -0.2588110879253879
atom 73.6400000000000006 31.5599999999999987 0.0000000000000000 Ar
    velocity -0.4882558420292766 0.6986369298147038 1.8171786457299679
atom 78.8999999999999915 31.5599999999999987 0.0000000000000000 Ar
    velocity 1.6140458309817376 0.2520653946733442 -0.3714394300985064
atom 0.0000000000000000 36.8200000000000003 0.0000000000000000 Ar
    velocity -1.2970372346330197 0.3096193349131244 -0.4150088895564900
atom 5.2599999999999998 36.8200000000000003 0.0000000000000000 Ar
    velocity -0.6927813158529179 -0.1116978223791918 -1.1384589100070486
atom 10.5199999999999996 36.8200000000000003 0.0000000000000000 Ar
    velocity -0.8988365880578051 0.2738299895626595 -1.8144520166298350
atom 15.7799999999999994 36.8200000000000003 0.0000000000000000 Ar
    velocity -0.8400583780340910 -0.1634922384411662 0.3382462731819068
atom 21.0399999999999991 36.8200000000000003 0.0000000000000000 Ar
    velocity 1.9133124083492352 -0.0446755329448239 -0.0310855166673067
atom 26.2999999999999972 36.8200000000000003 0.0000000000000000 Ar
    velocity -0.3083054684478382 -0.1790469214196577 0.2604958093806622
atom 31.5599999999999987 36.8200000000000003 0.0000000000000000 Ar
    velocity 1.3595003265991545 -0.0102038872387055 0.1860051563278828
atom 36.8200000000000003 36.8200000000000003 0.0000000000000000 Ar
    velocity 0.1670158529498086 -0.2457547492961356 -2.0014060868886241
atom 42.0799999999999983 36.8200000000000003 0.0000000000000000 Ar
    velocity -0.0869746278525321 -0.4094253820097870 0.8567030210155312
atom 47.3399999999999963 36.8200000000000003 0.0000000000000000 Ar
    velocity -0.9708852406327980 -0.6350798794687965 0.9842527731766121
atom 52.5999999999999943 36.8200000000000003 0.0000000000000000 Ar
    velocity -0.7846787085252406 -0.1976165545651913 0.6999129548646259
atom 57.8599999999999994 36.8200000000000003 0.0000000000000000 Ar
    velocity 0.2475124089640935 -0.0783030003065686 -0.2591501815175280
atom 63.1199999999999974 36.8200000000000003 0.0000000000000000 Ar
    velocity 0.4605122411773088 -0.6460358272380251 -0.9346478271517112
atom 68.3799999999999955 36.8200000000000003 0.0000000000000000 Ar
    velocity -0.1036546486086087 0.2060676420730556 -0.8006355469251636
atom 73.6400000000000006 36.8200000000000003 0.0000000000000000 Ar
    velocity 0.6312035403021968 -0.1302849495193652 0.9331476845584958
atom 78.8999999999999915 36.8200000000000003 0.0000000000000000 Ar
    velocity 0.4393405116078868 -0.1119037547617044 -0.9122255808543818
atom 0.0000000000000000 42.0799999999999983 0.0000000000000000 Ar
    velocity 1.1027208817786185 0.1346394984028281 0.0994284078156668
atom 5.2599999999999998 42.0799999999999983 0.0000000000000000 Ar
    velocity -0.2498860770276805 -0.3501430778114712 -0.9058321699848864
atom 10.5199999999999996 42.0799999999999983 0.0000000000000000 Ar
    velocity 0.8713584911976021 -0.3754794513443085 -0.5696791285325841
atom 15.7799999999999994 42.0799999999999983 0.0000000000000000 Ar
    velocity -0.0718166352995408 -0.6773554249008246 1.1016587565202862
atom 21.0399999999999991 42.0799999999999983 0.0000000000000000 Ar
    velocity -0.6713813392461095 0.9374599553529596 0.7556294832227015
atom 26.2999999999999972 42.0799999999999983 0.0000000000000000 Ar
    velocity -0.2791082338364084 0.1887324484828883 -0.1512690166737687
atom 31.5599999999999987 42.0799999999999983 0.0000000000000000 Ar
    velocity -0.2919722771540371 -1.0407795729629346 -0.8601975980327997
atom 36.8200000000000003 42.0799999999999983 0.0000000000000000 Ar
    velocity 0.6918358712598519 -0.0709063160059295 0.1968944005674557
atom 42.0799999999999983 42.0799999999999983 0.0000000000000000 Ar
    velocity 0.4951480672795888 0.1296279589602837 0.0458494776371451
atom 47.3399999999999963 42.0799999999999983 0.0000000000000000 Ar
    velocity 1.0115206746677288 0.9187743959796206 2.1284915659725274
atom 52.5999999999999943 42.0799999999999983 0.0000000000000000 Ar
    velocity 0.7924585810912249 1.1253832162758792 -1.2894664716162427
atom 57.8599999999999994 42.0799999999999983 0.0000000000000000 Ar
    velocity -1.0766975171755573 -1.0585285330495084 -0.3402525310128179
atom 63.1199999999999974 42.0799999999999983 0.0000000000000000 Ar
    velocity 0.6431009032527002 0.3664246649444666 -0.5703759447096606
atom 68.3799999999999955 42.0799999999999983 0.0000000000000000 Ar
    velocity -2.3210945044586149 -0.6878256640756656 -0.2366625444422801
atom 73.6400000000000006 42.0799999999999983 0.0000000000000000 Ar
    velocity 0.8489347230574820 1.9043104790685865 0.5009080186106786
atom 78.8999999999999915 42.0799999999999983 0.0000000000000000 Ar
    velocity 0.7442269547562296 0.4540907962726596 -0.3626428383951437
atom 0.0000000000000000 47.3399999999999963 0.0000000000000000 Ar
    velocity 0.3255297969576273 0.3736904043241764 -0.3849055323755902
atom 5.2599999999999998 47.3399999999999963 0.0000000000000000 Ar
    velocity 0.0117183960123390 0.6813857791575303 -0.5086489483968435
atom 10.5199999999999996 47.3399999999999963 0.0000000000000000 Ar
    velocity -0.5635340629452935 1.9724948887228415 -0.3935507612556630
atom 15.7799999999999994 47.3399999999999963 0.0000000000000000 Ar
    velocity 0.6142733056496414 0.2870682216671179 0.1973877593571127
atom 21.0399999999999991 47.3399999999999963 0.0000000000000000 Ar
    velocity -1.0164335439895242 -1.0250049259249132 0.8646955833823691
atom 26.2999999999999972 47.3399999999999963 0.0000000000000000 Ar
    velocity -0.9343747709829416 0.9084491267592645 -1.2033726743758446
atom 31.5599999999999987 47.3399999999999963 0.0000000000000000 Ar
    velocity 0.3898066732029601 0.4846739473599115 0.2158396631264587
atom 36.8200000000000003 47.3399999999999963 0.0000000000000000 Ar
    velocity -0.3816840877143454 0.2024886250601931 -0.1676322795605937
atom 42.0799999999999983 47.3399999999999963 0.0000000000000000 Ar
    velocity 0.0630712074012069 0.4823706893056063 0.0298444484563906
atom 47.3399999999999963 47.3399999999999963 0.0000000000000000 Ar
    velocity -0.9041917948771335 0.6655330481672757 -0.3102806004026615
atom 52.5999999999999943 47.3399999999999963 0.0000000000000000 Ar
    velocity -0.3322143111940539 2.3266772753764222 -0.9753531280748992
atom 57.8599999999999994 47.3399999999999963 0.0000000000000000 Ar
    velocity -0.1652454451613111 -0.0449669200796940 0.0378707003138284
atom 63.1199999999999974 47.3399999999999963 0.0000000000000000 Ar
    velocity 0.3989373272199772 -1.0250429759782309 1.0064051615642444
atom 68.3799999999999955 47.3399999999999963 0.0000000000000000 Ar
    velocity -0.0910271183035033 -0.2800611767184503 2.7034105212422048
atom 73.6400000000000006 47.3399999999999963 0.0000000000000000 Ar
    velocity -0.6261607322621620 -0.9160777161537399 1.0055411196361215
atom 78.8999999999999915 47.3399999999999963 0.0000000000000000 Ar
    velocity -0.4119243487684751 -0.2039194936575081 0.0742913029325310
atom 0.0000000000000000 52.5999999999999943 0.0000000000000000 Ar
    velocity 0.5459982971553152 0.5065687611361989 0.2197054468407581
atom 5.2599999999999998 52.5999999999999943 0.0000000000000000 Ar
    velocity -0.0889216062772056 -1.6919135078541998 0.1700073163516204
atom 10.5199999999999996 52.5999999999999943 0.0000000000000000 Ar
    velocity 0.6324523573768335 -0.1426915740612092 -0.6174433216980962
atom 15.7799999999999994 52.5999999999999943 0.0000000000000000 Ar
    velocity 0.0584398412427251 1.2778442222398911 0.2320592838548591
atom 21.0399999999999991 52.5999999999999943 0.0000000000000000 Ar
    velocity 0.2156248802832802 -0.2134820335273960 0.2346414449177670
atom 26.2999999999999972 52.5999999999999943 0.0000000000000000 Ar
    velocity 0.8852749334383541 0.0860044608710906 0.4539917416413363
atom 31.5599999999999987 52.5999999999999943 0.0000000000000000 Ar
    velocity -0.6695960716714883 -0.2202311258105372 -1.8317561293473612
atom 36.8200000000000003 52.5999999999999943 0.0000000000000000 Ar
    velocity 0.4015370355223625 0.5920341459265709 -0.4166866383380810
atom 42.0799999999999983 52.5999999999999943 0.0000000000000000 Ar
    velocity -0.3990671415747304 -0.2791265842938215 0.6880622964511345
atom 47.3399999999999963 52.5999999999999943 0.0000000000000000 Ar
    velocity 0.1018962040478602 0.3377074756296316 -0.6051218731077150
atom 52.5999999999999943 52.5999999999999943 0.0000000000000000 Ar
    velocity 0.1385434688204372 -0.5679733099135804 -0.1235937794673872
atom 57.8599999999999994 52.5999999999999943 0.0000000000000000 Ar
    velocity 0.6023632671361731 -0.4140312667690588 -0.6586412154290096
atom 63.1199999999999974 52.5999999999999943 0.0000000000000000 Ar
    velocity -2.1650389537895625 1.7002074849499946 0.1066961505929065
atom 68.3799999999999955 52.5999999999999943 0.0000000000000000 Ar
    velocity 0.0968938013846198 -1.2791456274275441 -0.1928161511198565
atom 73.6400000000000006 52.5999999999999943 0.0000000000000000 Ar
    velocity -1.3165543384394296 0.4108059201821043 0.2501966346874212
atom 78.8999999999999915 52.5999999999999943 0.0000000000000000 Ar
    velocity -0.2757782463566537 -0.0837233858367635 -0.7309849379147260
atom 0.0000000000000000 57.8599999999999994 0.0000000000000000 Ar
    velocity 0.3149620402764077 -0.1505197456905795 1.1072080006574376
atom 5.2599999999999998 57.8599999999999994 0.0000000000000000 Ar
    velocity -0.2455220852655333 0.0564463284533809 0.6011224231554526
atom 10.5199999999999996 57.8599999999999994 0.0000000000000000 Ar
    velocity 0.3053986375535211 0.1210895225426938 1.1159625730254934
atom 15.7799999999999994 57.8599999999999994 0.0000000000000000 Ar
    velocity -0.0072320908425039 0.2834662384048126 0.7652491155052197
atom 21.0399999999999991 57.8599999999999994 0.0000000000000000 Ar
    velocity 0.1410388500689752 -0.0408685383721609 1.4041725501103823
atom 26.2999999999999972 57.8599999999999994 0.0000000000000000 Ar
    velocity -2.0150959930435155 0.2042477373028535 -0.5497712085370141
atom 31.5599999999999987 57.8599999999999994 0.0000000000000000 Ar
    velocity -1.2771330442639215 -0.0262037656441577 -0.2770920509198028
atom 36.8200000000000003 57.8599999999999994 0.0000000000000000 Ar
    velocity -0.6883571485289588 -0.1548161327592402 -0.4232430024830825
atom 42.0799999999999983 57.8599999999999994 0.0000000000000000 Ar
    velocity 1.3164110371235367 0.9017202454557969 0.7464522405807055
atom 47.3399999999999963 57.8599999999999994 0.0000000000000000 Ar
    velocity -0.1875860305739442 -0.1820113063456757 0.0447950086486322
atom 52.5999999999999943 57.8599999999999994 0.0000000000000000 Ar
    velocity 0.5084380082774419 -0.2135851046986879 1.9096789252463133
atom 57.8599999999999994 57.8599999999999994 0.0000000000000000 Ar
    velocity -0.0368542387995222 0.9162574130543666 0.3829223295060813
atom 63.1199999999999974 57.8599999999999994 0.0000000000000000 Ar
    velocity -0.8930844479610223 0.2929902122380830 -0.1174352668580826
atom 68.3799999999999955 57.8599999999999994 0.0000000000000000 Ar
    velocity 2.1733504781795872 -0.8393740675776654 -1.4772774090916598
atom 73.6400000000000006 57.8599999999999994 0.0000000000000000 Ar
    velocity -0.2206064870262563 -0.7770264692209712 0.8040290888236152
atom 78.8999999999999915 57.8599999999999994 0.0000000000000000 Ar
    velocity 0.7959644232529031 -0.0369000711510114 0.7054242574160667
atom 0.0000000000000000 63.1199999999999974 0.0000000000000000 Ar
    velocity -2.3798478578679285 -0.4392618945624728 -0.1122979499031769
atom 5.2599999999999998 63.1199999999999974 0.0000000000000000 Ar
    velocity -1.8102873839356493 0.4009931535725136 -0.4906896633416286
atom 10.5199999999999996 63.1199999999999974 0.0000000000000000 Ar
    velocity -0.2447646795505268 -0.3294588701653881 -0.7202617649622511
atom 15.7799999999999994 63.1199999999999974 0.0000000000000000 Ar
    velocity -0.6231402366644504 0.2954943707493523 0.2112663604541700
atom 21.0399999999999991 63.1199999999999974 0.0000000000000000 Ar
    velocity 0.0099224803172069 1.2703230903973786 -0.7809936473776573
atom 26.2999999999999972 63.1199999999999974 0.0000000000000000 Ar
    velocity -0.0860932424563708 -1.3170988081282162 2.0373793694041327
atom 31.5599999999999987 63.1199999999999974 0.0000000000000000 Ar
    velocity 1.1527945066311649 0.4755226152655742 0.9504220176358780
atom 36.8200000000000003 63.1199999999999974 0.0000000000000000 Ar
    velocity 0.0023367996431823 -0.7700206262444321 0.9302724321603314
atom 42.0799999999999983 63.1199999999999974 0.0000000000000000 Ar
    velocity -0.5888389178642609 0.0748908958624037 1.3441759976912482
atom 47.3399999999999963 63.1199999999999974 0.0000000000000000 Ar
    velocity 0.5203866499295657 -0.1010509918044558 0.1835840213450441
atom 52.5999999999999943 63.1199999999999974 0.0000000000000000 Ar
    velocity 1.1738069271213900 -0.1809188833300127 0.3796370329042367
atom 57.8599999999999994 63.1199999999999974 0.0000000000000000 Ar
    velocity 1.2093484326420416 0.9418642886333092 0.3020103808568254
atom 63.1199999999999974 63.1199999999999974 0.0000000000000000 Ar
    velocity -0.1503362574364309 -1.0836266739952984 0.0314783983581329
atom 68.3799999999999955 63.1199999999999974 0.0000000000000000 Ar
    velocity -0.9851739777845402 -1.1264217069832991 1.1244346573085120
atom 73.6400000000000006 63.1199999999999974 0.0000000000000000 Ar
    velocity -0.7099946269151006 -1.2556521485608798 1.2768095855505299
atom 78.8999999999999915 63.1199999999999974 0.0000000000000000 Ar
    velocity 1.1190866658677847 0.8633842939822434 -0.0796022079010805
atom 0.0000000000000000 68.3799999999999955 0.0000000000000000 Ar
    velocity -0.2036086848557223 -0.3853705722173706 0.4698738285035014
atom 5.2599999999999998 68.3799999999999955 0.0000000000000000 Ar
    velocity -0.3522218449807688 1.0135347532518595 -0.7031541694369603
atom 10.5199999999999996 68.3799999999999955 0.0000000000000000 Ar
    velocity 0.7870045537399141 -0.8665654504022605 -0.6756910276205486
atom 15.7799999999999994 68.3799999999999955 0.0000000000000000 Ar
    velocity 0.1618887293353358 -0.5831081415160082 -0.5498640201985010
atom 21.0399999999999991 68.3799999999999955 0.0000000000000000 Ar
    velocity 0.4929533049605014 -1.1536088374369413 -0.7110911557276773
atom 26.2999999999999972 68.3799999999999955 0.0000000000000000 Ar