#=======================================================
# FHI-aims file: argon_1176_30k.in
# Created using the Atomic Simulation Environment (ASE)
# Tue Jun 15 19:24:51 2021
#=======================================================
lattice_vector 31.5599999999999987 0.0000000000000000 0.0000000000000000 
lattice_vector 0.0000000000000000 36.8200000000000003 0.0000000000000000 
lattice_vector 0.0000000000000000 0.0000000000000000 36.8200000000000003 
atom 0.0000000000000000 0.0000000000000000 0.0000000000000000 Ar
    velocity -0.9383362637143381 0.5910013691334868 -0.2477776459465964
atom 5.2600000000000007 0.0000000000000000 0.0000000000000000 Ar
    velocity -0.0220501460536211 0.7174348966411918 0.0805616231112862
atom 10.5200000000000014 0.0000000000000000 0.0000000000000000 Ar
    velocity 0.8517955826817954 0.1656059589256881 1.3071823149010811
atom 15.7799999999999994 0.0000000000000000 0.0000000000000000 Ar
    velocity 0.5914393845400526 1.5410365061572593 0.3838745505421173
atom 21.0400000000000027 0.0000000000000000 0.0000000000000000 Ar
    velocity 0.0681930709719842 -0.0033822257904623 1.4728818645145256
atom 26.2999999999999972 0.0000000000000000 0.0000000000000000 Ar
    velocity 1.6496876298576435 0.3798634692915909 -0.4406878341252894
atom 0.0000000000000000 5.2599999999999998 0.0000000000000000 Ar
    velocity 0.9164946028811699 0.4604347346930178 0.7105233195715923
atom 5.2600000000000007 5.2599999999999998 0.0000000000000000 Ar
    velocity -0.6084927542633284 0.5685148168022598 -0.1299400002697088
atom 10.5200000000000014 5.2599999999999998 0.0000000000000000 Ar
    velocity -0.5533464654638229 -1.2036767665676400 -0.2760875497770990
atom 15.7799999999999994 5.2599999999999998 0.0000000000000000 Ar
    velocity 0.3746169534262471 -0.2007886461123713 -0.6437439802333166
atom 21.0400000000000027 5.2599999999999998 0.0000000000000000 Ar
    velocity 0.4614071990872152 -0.1073062481368248 -1.2586964123717350
atom 26.2999999999999972 5.2599999999999998 0.0000000000000000 Ar
    velocity 0.1962473420582746 -0.5727673181554845 0.8753127375070819
atom 0.0000000000000000 10.5199999999999996 0.0000000000000000 Ar
    velocity -0.1715641994352481 -0.5313597659492466 0.4037567196572883
atom 5.2600000000000007 10.5199999999999996 0.0000000000000000 Ar
    velocity -0.5992336119100475 -0.2380135337084664 0.9299181937827913
atom 10.5200000000000014 10.5199999999999996 0.0000000000000000 Ar
    velocity 0.3536400448976281 0.9340682540778740 0.1803561838244423
atom 15.7799999999999994 10.5199999999999996 0.0000000000000000 Ar
    velocity 0.7573010313505647 -0.6354279790534471 0.0785474412384735
atom 21.0400000000000027 10.5199999999999996 0.0000000000000000 Ar
    velocity 1.3145389836976222 -0.2570908227745143 0.2503395432907911
atom 26.2999999999999972 10.5199999999999996 0.0000000000000000 Ar
    velocity -1.0375208604037365 -0.1273843501064171 -0.5549051182957510
atom 0.0000000000000000 15.7799999999999994 0.0000000000000000 Ar
    velocity 0.0792537860006868 -1.1124986029856510 -2.0243782299349262
atom 5.2600000000000007 15.7799999999999994 0.0000000000000000 Ar
    velocity -0.5148883401069559 1.1840797479370486 1.1772297607072937
atom 10.5200000000000014 15.7799999999999994 0.0000000000000000 Ar
    velocity 0.7992052116883767 -0.8145171283125331 0.4962693854078430
atom 15.7799999999999994 15.7799999999999994 0.0000000000000000 Ar
    velocity -0.7689797167470861 0.3809566428015397 0.4319672395359750
atom 21.0400000000000027 15.7799999999999994 0.0000000000000000 Ar
    velocity 1.3152876183720037 -0.0558101626180186 0.9079919435172913
atom 26.2999999999999972 15.7799999999999994 0.0000000000000000 Ar
    velocity -0.3852844130899597 -0.7419147153296780 -0.6007993581359307
atom 0.0000000000000000 21.0399999999999991 0.0000000000000000 Ar
    velocity 0.5152743830635227 1.0433527472743851 -1.2442076034203946
atom 5.2600000000000007 21.0399999999999991 0.0000000000000000 Ar
    velocity -0.1973271966103917 -1.0817109005517358 0.4013542292788758
atom 10.5200000000000014 21.0399999999999991 0.0000000000000000 Ar
    velocity -0.4715041605915710 -1.7477422336008639 -1.0089621485562936
atom 15.7799999999999994 21.0399999999999991 0.0000000000000000 Ar
    velocity 0.3560610786140699 -0.0087111273068251 -0.7005379151408087
atom 21.0400000000000027 21.0399999999999991 0.0000000000000000 Ar
    velocity -0.2168865003433134 -0.3408067798111310 0.3659229936758216
atom 26.2999999999999972 21.0399999999999991 0.0000000000000000 Ar
    velocity -1.1597041430776343 1.1284132405481857 -1.1222020787630316
atom 0.0000000000000000 26.2999999999999972 0.0000000000000000 Ar
    velocity -1.0349526443112584 -0.6243794072111691 0.1750801693860343
atom 5.2600000000000007 26.2999999999999972 0.0000000000000000 Ar
    velocity 0.2026555858931280 0.0024185016149240 -0.2601563311641314
atom 10.5200000000000014 26.2999999999999972 0.0000000000000000 Ar
    velocity -0.5340042857052999 0.0292822344507732 -0.0801309411324069
atom 15.7799999999999994 26.2999999999999972 0.0000000000000000 Ar
    velocity 0.6411972122670967 -0.0295769020570798 -1.0572359834444174
atom 21.0400000000000027 26.2999999999999972 0.0000000000000000 Ar
    velocity -1.0832902400315676 -0.8064238785299306 -0.2171807221515591
atom 26.2999999999999972 26.2999999999999972 0.0000000000000000 Ar
    velocity 0.8103390868498042 0.8191578562988434 0.4521469754970749
atom 0.0000000000000000 31.5599999999999987 0.0000000000000000 Ar
    velocity -0.5187800335330437 -0.6396263094505026 0.6051669298484890
atom 5.2600000000000007 31.5599999999999987 0.0000000000000000 Ar
    velocity 0.2907694686958494 0.5417293730454827 0.6185723732593866
atom 10.5200000000000014 31.5599999999999987 0.0000000000000000 Ar
    velocity -0.2887001904089858 0.1806212697356236 -0.4345832711699880
atom 15.7799999999999994 31.5599999999999987 0.0000000000000000 Ar
    velocity -0.2348660503626293 0.0223419334097329 -1.6702597850627940
atom 21.0400000000000027 31.5599999999999987 0.0000000000000000 Ar
    velocity -0.4373739404834805 -0.4727034669558559 1.8184552562819021
atom 26.2999999999999972 31.5599999999999987 0.0000000000000000 Ar
    velocity 0.5944631356195489 -0.0940355151369364 0.1872670764044784
atom 0.0000000000000000 0.0000000000000000 5.2599999999999998 Ar
    velocity 0.0232798131469605 -0.0166080626769109 0.9153065928550889
atom 5.2600000000000007 0.0000000000000000 5.2599999999999998 Ar
    velocity -0.9770426410215823 -0.6025159428229014 -0.1011333698272568
atom 10.5200000000000014 0.0000000000000000 5.2599999999999998 Ar
    velocity 0.3125224047101881 -0.2745191541719648 1.6086935898923949
atom 15.7799999999999994 0.0000000000000000 5.2599999999999998 Ar
    velocity 0.6710501649524582 -0.1935054632767431 -0.2840659494309653
atom 21.0400000000000027 0.0000000000000000 5.2599999999999998 Ar
    velocity -0.6974200640343440 -0.4650774473477041 0.1485688876517815
atom 26.2999999999999972 0.0000000000000000 5.2599999999999998 Ar
    velocity -0.2225388850128735 0.4559886643070308 -0.5498694430084348
atom 0.0000000000000000 5.2599999999999998 5.2599999999999998 Ar
    velocity 1.1289027182014499 -0.4092339845071715 -1.5613989626140754
atom 5.2600000000000007 5.2599999999999998 5.2599999999999998 Ar
    velocity -0.1476359459471397 1.7183436659213969 1.8070941729498469
atom 10.5200000000000014 5.2599999999999998 5.2599999999999998 Ar
    velocity -0.9935264119600800 -0.7324796869330369 -0.1539066580698093
atom 15.7799999999999994 5.2599999999999998 5.2599999999999998 Ar
    velocity 0.2062397183212913 -0.0522318565444250 0.2422080903891684
atom 21.0400000000000027 5.2599999999999998 5.2599999999999998 Ar
    velocity 0.2928019905932501 0.4020044658527880 -0.4091111843259806
atom 26.2999999999999972 5.2599999999999998 5.2599999999999998 Ar
    velocity 1.2734259671151069 1.3181125613346656 -0.2130413681786116
atom 0.0000000000000000 10.5199999999999996 5.2599999999999998 Ar
    velocity -0.7746841747427767 -0.6980601488220215 0.0073705352741543
atom 5.2600000000000007 10.5199999999999996 5.2599999999999998 Ar
    velocity -0.3817848212796398 -0.8917754341540594 0.0754424391568523
atom 10.5200000000000014 10.5199999999999996 5.2599999999999998 Ar
    velocity -0.5299700019591886 -0.7836492281939850 -0.3807413368172213
atom 15.7799999999999994 10.5199999999999996 5.2599999999999998 Ar
    velocity -0.2604678028274385 -0.1711163151632081 -0.6198471600493406
atom 21.0400000000000027 10.5199999999999996 5.2599999999999998 Ar
    velocity -0.3441232462715677 0.4837681302247486 0.3570008587357067
atom 26.2999999999999972 10.5199999999999996 5.2599999999999998 Ar
    velocity 1.2050755276359348 -0.6458746530573168 -1.6253635007156946
atom 0.0000000000000000 15.7799999999999994 5.2599999999999998 Ar
    velocity 0.7958662039913663 0.8538285938605583 -0.7442277830548847
atom 5.2600000000000007 15.7799999999999994 5.2599999999999998 Ar
    velocity 0.9951420490096620 -0.0137750232463754 0.3680396332972486
atom 10.5200000000000014 15.7799999999999994 5.2599999999999998 Ar
    velocity -1.0529772185738480 -1.2555016074515410 -0.1760130612657417
atom 15.7799999999999994 15.7799999999999994 5.2599999999999998 Ar
    velocity -0.3579392347742308 0.1235886295815826 -0.2177258341731408
atom 21.0400000000000027 15.7799999999999994 5.2599999999999998 Ar
    velocity 0.1081130666314480 0.3916091727810643 -0.1538786508070960
atom 26.2999999999999972 15.7799999999999994 5.2599999999999998 Ar
    velocity -1.6931078561806903 0.5456671726835144 -0.2123381338704736
atom 0.0000000000000000 21.0399999999999991 5.2599999999999998 Ar
    velocity 0.4403317907614175 0.1781031741863720 -0.3033863399898072
atom 5.2600000000000007 21.0399999999999991 5.2599999999999998 Ar
    velocity -0.3385201276267624 0.3625046883737254 -0.0553288531259209
atom 10.5200000000000014 21.0399999999999991 5.2599999999999998 Ar
    velocity 0.9549405288482363 0.2798511857392194 0.3469871084699011
atom 15.7799999999999994 21.0399999999999991 5.2599999999999998 Ar
    velocity 0.3940669098639853 -0.0944931341811723 -0.1163895738504481
atom 21.0400000000000027 21.0399999999999991 5.2599999999999998 Ar
    velocity -0.1529582176022632 -0.8104630352656244 -0.0088637298688982
atom 26.2999999999999972 21.0399999999999991 5.2599999999999998 Ar
    velocity 0.0910989969073910 -0.1258623190170642 0.3053080338261970
atom 0.0000000000000000 26.2999999999999972 5.2599999999999998 Ar
    velocity -0.4622823534130489 -0.4258667372873721 -0.5540026854043401
atom 5.2600000000000007 26.2999999999999972 5.2599999999999998 Ar
    velocity 0.8883655585688004 -1.0454995900809252 -0.7607823366196793
atom 10.5200000000000014 26.2999999999999972 5.2599999999999998 Ar
    velocity -0.0836325940079021 1.2389439442372709 -0.3845943519587554
atom 15.7799999999999994 26.2999999999999972 5.2599999999999998 Ar
    velocity 1.2787236594418852 -0.3655853010904376 -1.0869961436489517
atom 21.0400000000000027 26.2999999999999972 5.2599999999999998 Ar
    velocity -0.5253603443880275 0.5811379332650302 0.8338070387129209
atom 26.2999999999999972 26.2999999999999972 5.2599999999999998 Ar
    velocity -0.1973757481284173 -0.4071009741725184 -1.1068327573791810
atom 0.0000000000000000 31.5599999999999987 5.2599999999999998 Ar
    velocity 1.5142211579340472 0.3957704040596747 -1.2539263117629955
atom 5.2600000000000007 31.5599999999999987 5.2599999999999998 Ar
    velocity -0.6648851601120822 -0.6523808084822289 1.5677484209810342
atom 10.5200000000000014 31.5599999999999987 5.2599999999999998 Ar
    velocity 0.1467212550148245 0.8108064755780788 1.1199304816706555
atom 15.7799999999999994 31.5599999999999987 5.2599999999999998 Ar
    velocity 2.3004427781299990 1.1305507263724179 0.7922548509996001
atom 21.0400000000000027 31.5599999999999987 5.2599999999999998 Ar
    velocity -0.6017517533823518 -0.4858966061702595 -0.6768169601751884
atom 26.2999999999999972 31.5599999999999987 5.2599999999999998 Ar
    velocity 0.8595612356786930 -1.3994987973249582 0.9589212460219707
atom 0.0000000000000000 0.0000000000000000 10.5199999999999996 Ar
    velocity -0.5225947676036390 0.1836421066307617 -0.8723990617091898
atom 5.2600000000000007 0.0000000000000000 10.5199999999999996 Ar
    velocity 0.0373096299794375 1.0346840504801234 0.7868602498377952
atom 10.5200000000000014 0.0000000000000000 10.5199999999999996 Ar
    velocity -0.3274700197632554 -1.4346229279673914 -0.8915869659120077
atom 15.7799999999999994 0.0000000000000000 10.5199999999999996 Ar
    velocity -0.9704785382561462 0.0849614781942111 0.9392618607705961
atom 21.0400000000000027 0.0000000000000000 10.5199999999999996 Ar
    velocity -0.4338124098358530 -0.6378747473502292 -0.0332736608790323
atom 26.2999999999999972 0.0000000000000000 10.5199999999999996 Ar
    velocity -0.1482879094884888 -1.8884489023055251 0.5494374488941834
atom 0.0000000000000000 5.2599999999999998 10.5199999999999996 Ar
    velocity 0.1034498826313124 0.2756882697248385 0.2556316442393464
atom 5.2600000000000007 5.2599999999999998 10.5199999999999996 Ar
    velocity -0.7160448923745099 -0.5331743778586339 0.7852124268270340
atom 10.5200000000000014 5.2599999999999998 10.5199999999999996 Ar
    velocity -0.2332511622720230 -0.3666341243663588 0.6067563412765251
atom 15.7799999999999994 5.2599999999999998 10.5199999999999996 Ar
    velocity 0.0767509671412714 -0.8063275794005850 -0.4550704013277904
atom 21.0400000000000027 5.2599999999999998 10.5199999999999996 Ar
    velocity 0.2823302584363178 -0.1804288783726994 -1.4617934426539287
atom 26.2999999999999972 5.2599999999999998 10.5199999999999996 Ar
    velocity 0.3206394343751204 -0.0412080730766739 1.1798136166356723
atom 0.0000000000000000 10.5199999999999996 10.5199999999999996 Ar
    velocity -0.7720585206413222 0.6451073183840975 0.7319264085539621
atom 5.2600000000000007 10.5199999999999996 10.5199999999999996 Ar
    velocity -0.4803392813494239 -0.2212223115571955 -0.3126883637072984
atom 10.5200000000000014 10.5199999999999996 10.5199999999999996 Ar
    velocity 0.5449356004451690 0.8937167626020153 0.2667123605344627
atom 15.7799999999999994 10.5199999999999996 10.5199999999999996 Ar
    velocity -0.7720954114139523 1.3463117814252199 0.0706594785781987
atom 21.0400000000000027 10.5199999999999996 10.5199999999999996 Ar
    velocity -0.2759430266310062 0.2477379454465174 1.7389205287253486
atom 26.2999999999999972 10.5199999999999996 10.5199999999999996 Ar
    velocity 0.5158042276321265 -0.2400899466686082 1.6169572944383817
atom 0.0000000000000000 15.7799999999999994 10.5199999999999996 Ar
    velocity -1.1872064533554461 -0.1372212714932591 0.6350856251701227
atom 5.2600000000000007 15.7799999999999994 10.5199999999999996 Ar
    velocity 0.2895834695739163 0.1118782418769177 -0.0347978123053200
atom 10.5200000000000014 15.7799999999999994 10.5199999999999996 Ar
    velocity -0.6186299937724716 -0.2838437682385685 0.1478355857972559
atom 15.7799999999999994 15.7799999999999994 10.5199999999999996 Ar
    velocity 0.1910280843491275 0.9308811760929709 -0.1534933619104268
atom 21.0400000000000027 15.7799999999999994 10.5199999999999996 Ar
    velocity 1.3937538357046024 0.9409701023552427 -0.4046053515188172
atom 26.2999999999999972 15.7799999999999994 10.5199999999999996 Ar
    velocity -0.5849010888787634 -0.1504040953797252 -0.0325527270737288
atom 0.0000000000000000 21.0399999999999991 10.5199999999999996 Ar
    velocity 0.4215221791444287 -0.3503379574808999 -0.2104501316209302
atom 5.2600000000000007 21.0399999999999991 10.5199999999999996 Ar
    velocity 0.4549881110782482 -0.4705117381436802 0.3719899366404765
atom 10.5200000000000014 21.0399999999999991 10.5199999999999996 Ar
    velocity 0.6498692271918558 -1.1512135110112984 -0.5154587714049549
atom 15.7799999999999994 21.0399999999999991 10.5199999999999996 Ar
    velocity 0.1407897349816684 0.7754865037710639 0.4351632565171319
atom 21.0400000000000027 21.0399999999999991 10.5199999999999996 Ar
    velocity 1.0623807766605520 -0.5865370779252814 0.2408364633040257
atom 26.2999999999999972 21.0399999999999991 10.5199999999999996 Ar
    velocity 0.2065063205790260 0.5343896910712452 -0.3648049848992109
atom 0.0000000000000000 26.2999999999999972 10.5199999999999996 Ar
    velocity 1.0202444856954336 -0.9631425869401750 0.3333160133394458
atom 5.2600000000000007 26.2999999999999972 10.5199999999999996 Ar
    velocity -1.1566968074828785 -0.5407100463870609 -0.3075405922882687
atom 10.5200000000000014 26.2999999999999972 10.5199999999999996 Ar
    velocity -0.4439860209285246 -0.8806383312832439 1.6224922421521482
atom 15.7799999999999994 26.2999999999999972 10.5199999999999996 Ar
    velocity -1.6716506760084568 -1.7524673339926284 -0.9207720848991415
atom 21.0400000000000027 26.2999999999999972 10.5199999999999996 Ar
    velocity 0.8232967472942075 0.9710850072755174 -0.1722113503822736
atom 26.2999999999999972 26.2999999999999972 10.5199999999999996 Ar
    velocity -0.5888574258041162 0.1630717753757473 -1.2775890484969072
atom 0.0000000000000000 31.5599999999999987 10.5199999999999996 Ar
    velocity 0.2255555373530006 0.2968283070213946 -2.2657639205843858
atom 5.2600000000000007 31.5599999999999987 10.5199999999999996 Ar
    velocity -0.6765133980564060 -0.0027395766601947 1.1753406600815037
atom 10.5200000000000014 31.5599999999999987 10.5199999999999996 Ar
    velocity 1.6284961002828124 -0.1631907830742433 1.0234952175003418
atom 15.7799999999999994 31.5599999999999987 10.5199999999999996 Ar
    velocity -0.2037867179000721 -0.5875666402901685 0.2403678758919451
atom 21.0400000000000027 31.5599999999999987 10.5199999999999996 Ar
    velocity -0.2744251624123239 -0.6528746795729283 0.5852118484032759
atom 26.2999999999999972 31.5599999999999987 10.5199999999999996 Ar
    velocity 0.4899338162559551 -0.6159083491520311 0.2190985020482280
atom 0.0000000000000000 0.0000000000000000 15.7799999999999994 Ar
    velocity 0.3248593053166424 0.2097324768767937 -1.1882251901506606
atom 5.2600000000000007 0.0000000000000000 15.7799999999999994 Ar
    velocity 0.1251443235657218 0.2482962024170192 -0.3955845176184344
atom 10.5200000000000014 0.0000000000000000 15.7799999999999994 Ar
    velocity 0.0339240309340741 -0.9678063268851083 -0.0799382881271061
atom 15.7799999999999994 0.0000000000000000 15.7799999999999994 Ar
    velocity 0.0788390415528265 -1.0263923838961519 -0.2215132061369648
atom 21.0400000000000027 0.0000000000000000 15.7799999999999994 Ar
    velocity 1.1641115870765462 -0.6225518754332071 0.7188764011536597
atom 26.2999999999999972 0.0000000000000000 15.7799999999999994 Ar
    velocity -0.5568151819276560 -0.4428198646862996 -0.9690623258583513
atom 0.0000000000000000 5.2599999999999998 15.7799999999999994 Ar
    velocity 0.0512715096990603 0.7907170843351644 -0.6921578756207949
atom 5.2600000000000007 5.2599999999999998 15.7799999999999994 Ar
    velocity 0.1313537752486723 -0.0286251765223992 -1.0362703751776086
atom 10.5200000000000014 5.2599999999999998 15.7799999999999994 Ar
    velocity 0.0220763664875032 0.4243916006318079 -0.5987341964240821
atom 15.7799999999999994 5.2599999999999998 15.7799999999999994 Ar
    velocity 0.9344744305949524 1.5671307154830263 -0.1426158825783396
atom 21.0400000000000027 5.2599999999999998 15.7799999999999994 Ar
    velocity 0.7219310044796714 -0.1345261716598770 0.2755692463118204
atom 26.2999999999999972 5.2599999999999998 15.7799999999999994 Ar
    velocity -1.1038225209737482 1.3344742805409044 -0.4524770843133687
atom 0.0000000000000000 10.5199999999999996 15.7799999999999994 Ar
    velocity -1.4816819764878355 -0.8450858820165722 0.1070162519038469
atom 5.2600000000000007 10.5199999999999996 15.7799999999999994 Ar
    velocity -1.2054910413337492 -0.9847992695245896 0.2143604415375381
atom 10.5200000000000014 10.5199999999999996 15.7799999999999994 Ar
    velocity 0.2590287381680211 0.3767677661354911 0.7542413794983935
atom 15.7799999999999994 10.5199999999999996 15.7799999999999994 Ar
    velocity 1.3409722606457313 0.1285003011030604 -0.0318907202639127
atom 21.0400000000000027 10.5199999999999996 15.7799999999999994 Ar
    velocity 0.6797877013807810 -0.6004334574429974 -0.8351045415811569
atom 26.2999999999999972 10.5199999999999996 15.7799999999999994 Ar
    velocity -1.5778745123833007 -0.3202548443450923 -0.3828276731472370
atom 0.0000000000000000 15.7799999999999994 15.7799999999999994 Ar
    velocity -1.9877105047241956 -0.0512555191456681 -0.0917997947119427
atom 5.2600000000000007 15.7799999999999994 15.7799999999999994 Ar
    velocity 0.0741408280018607 0.4353974562045232 0.7231738578651030
atom 10.5200000000000014 15.7799999999999994 15.7799999999999994 Ar
    velocity 0.0097365710492764 -0.2812804745223839 0.2032025233313144
atom 15.7799999999999994 15.7799999999999994 15.7799999999999994 Ar
    velocity -0.1118093326613298 0.9676507717892435 -0.6948637835854051
atom 21.0400000000000027 15.7799999999999994 15.7799999999999994 Ar
    velocity -0.4610947209653641 0.0936143848676881 -1.9330164572249326
atom 26.2999999999999972 15.7799999999999994 15.7799999999999994 Ar
    velocity 0.1485677028188737 0.4852773378814508 0.4419417887741229
atom 0.0000000000000000 21.0399999999999991 15.7799999999999994 Ar
    velocity 1.4891116353210105 -1.2308968474481763 0.1533807073613495
atom 5.2600000000000007 21.0399999999999991 15.7799999999999994 Ar
    velocity -0.3588053669743192 0.8299593116489224 0.1042974266123323
atom 10.5200000000000014 21.0399999999999991 15.7799999999999994 Ar
    velocity 1.0335417535294653 0.1779001706306899 -1.3051541885893607
atom 15.7799999999999994 21.0399999999999991 15.7799999999999994 Ar
    velocity 0.0728590894466210 0.6562695282303296 -0.4266863069343380
atom 21.0400000000000027 21.0399999999999991 15.7799999999999994 Ar
    velocity 0.0975150713983818 0.2382568864793808 1.7013583797280176
atom 26.2999999999999972 21.0399999999999991 15.7799999999999994 Ar
    velocity 1.0240017418909608 1.3221211799442667 0.3112068314920511
atom 0.0000000000000000 26.2999999999999972 15.7799999999999994 Ar
    velocity 1.1970895663632644 0.3109258970895308 1.2843368849665233
atom 5.2600000000000007 26.2999999999999972 15.7799999999999994 Ar
    velocity 1.3426944439080974 0.2305197865210055 0.3960985238961299
atom 10.5200000000000014 26.2999999999999972 15.7799999999999994 Ar
    velocity 0.4123528734707906 -0.3672508508269635 -0.5960995097608913
atom 15.7799999999999994 26.2999999999999972 15.7799999999999994 Ar
    velocity -0.3245114719625902 0.4740369133338603 0.7842015288347808
atom 21.0400000000000027 26.2999999999999972 15.7799999999999994 Ar
    velocity 0.0758524342510257 -0.4877198958732000 -0.0774001630595780
atom 26.2999999999999972 26.2999999999999972 15.7799999999999994 Ar
    velocity -0.1323619845090499 -0.3584103250515843 -0.1539921019078625
atom 0.0000000000000000 31.5599999999999987 15.7799999999999994 Ar
    velocity -1.4457103900145483 0.8497456588524853 -0.7622051268672432
atom 5.2600000000000007 31.5599999999999987 15.7799999999999994 Ar
    velocity -0.7692205956154388 0.7004393912278880 0.1352565775160056
atom 10.5200000000000014 31.5599999999999987 15.7799999999999994 Ar
    velocity 1.4131154362422109 -0.1592458735880738 -0.0827902868779009
atom 15.7799999999999994 31.5599999999999987 15.7799999999999994 Ar
    velocity -0.5865328849741249 0.2251172352027418 -0.2420438176992500
atom 21.0400000000000027 31.5599999999999987 15.7799999999999994 Ar
    velocity 0.4266864536664412 -0.1855333482169172 -1.4537607280457492
atom 26.2999999999999972 31.5599999999999987 15.7799999999999994 Ar
    velocity 0.1442704032638483 0.5456698123754534 2.0326190304605296
atom 0.0000000000000000 0.0000000000000000 21.0399999999999991 Ar
    velocity 0.3167694653653110 0.2716952755110713 -0.5888407948342099
atom 5.2600000000000007 0.0000000000000000 21.0399999999999991 Ar
    velocity 0.7666386140051629 1.0698402585994535 0.0590659229954953
atom 10.5200000000000014 0.0000000000000000 21.0399999999999991 Ar
    velocity -0.2799947469053636 -0.1427406153910719 -0.2815827196903747
atom 15.7799999999999994 0.0000000000000000 21.0399999999999991 Ar
    velocity -0.5605473151952658 0.1224674601332116 -0.7709855883169872
atom 21.0400000000000027 0.0000000000000000 21.0399999999999991 Ar
    velocity 1.4387581233422675 -1.2071530838808699 -0.5076150328269461
atom 26.2999999999999972 0.0000000000000000 21.0399999999999991 Ar
    velocity 0.5736200517856608 -1.0904107286959417 0.0966421005025140
atom 0.0000000000000000 5.2599999999999998 21.0399999999999991 Ar
    velocity 0.4582139149114471 -0.4840059724894565 -0.7812567800665866
atom 5.2600000000000007 5.2599999999999998 21.0399999999999991 Ar
    velocity 0.6493767557338274 -0.2784801787848456 -0.4250861442028726
atom 10.5200000000000014 5.2599999999999998 21.0399999999999991 Ar
    velocity 0.3344925652316079 -0.0464080754149076 1.7399527234725085
atom 15.7799999999999994 5.2599999999999998 21.0399999999999991 Ar
    velocity -1.7627750832518621 0.4703186014428666 -0.6032750449409444
atom 21.0400000000000027 5.2599999999999998 21.0399999999999991 Ar
    velocity -0.4683263510262736 -2.2611490587147296 0.1819686842203704
atom 26.2999999999999972 5.2599999999999998 21.0399999999999991 Ar
    velocity 1.4634097602704614 -0.0762629327238472 -0.1180405084310227
atom 0.0000000000000000 10.5199999999999996 21.0399999999999991 Ar
    velocity -0.7731054359505752 1.0489232953210892 0.9388495580868151
atom 5.2600000000000007 10.5199999999999996 21.0399999999999991 Ar
    velocity -0.4319391617811199 -0.7575486405676910 -0.9358288496886453
atom 10.5200000000000014 10.5199999999999996 21.0399999999999991 Ar
    velocity -0.1444185598735704 0.8662267778912610 0.2560936744162461
atom 15.7799999999999994 10.5199999999999996 21.0399999999999991 Ar
    velocity 0.8199792287104376 -0.7662205260664920 -0.0724758226827133
atom 21.0400000000000027 10.5199999999999996 21.0399999999999991 Ar
    velocity 0.9247172291297761 -0.5513806187416990 0.2555339410376281
atom 26.2999999999999972 10.5199999999999996 21.0399999999999991 Ar
    velocity -0.0150914461883971 -1.1867213061260664 0.1077771497652714
atom 0.0000000000000000 15.7799999999999994 21.0399999999999991 Ar
    velocity 0.1652345820963056 1.3803869958957837 -2.4682464359145779
atom 5.2600000000000007 15.7799999999999994 21.0399999999999991 Ar
    velocity 1.8066554660299892 1.5338125989177951 -0.2908397373938539
atom 10.5200000000000014 15.7799999999999994 21.0399999999999991 Ar
    velocity 1.2535900075685600 0.5915623476731524 0.4991259648150485
atom 15.7799999999999994 15.7799999999999994 21.0399999999999991 Ar
    velocity 0.6042823375801911 -1.1393418880238932 -0.3655093338274134
atom 21.0400000000000027 15.7799999999999994 21.0399999999999991 Ar
    velocity 1.2995193480688068 0.4080763984972745 0.4066376269015845
atom 26.2999999999999972 15.7799999999999994 21.0399999999999991 Ar
    velocity 1.0968656906161467 0.9844645841243601 0.0392469524461149
atom 0.0000000000000000 21.0399999999999991 21.0399999999999991 Ar
    velocity 1.5348921841125769 0.2180992478555393 -0.8640672413542070
atom 5.2600000000000007 21.0399999999999991 21.0399999999999991 Ar
    velocity 0.0871297419652964 0.0165063390275301 -1.0192994309167318
atom 10.5200000000000014 21.0399999999999991 21.0399999999999991 Ar
    velocity -1.1051452180591719 0.2665173084567563 0.4673966253837363
atom 15.7799999999999994 21.0399999999999991 21.0399999999999991 Ar
    velocity -0.4132649480096349 1.4491477228398844 -0.4631328938004559
atom 21.0400000000000027 21.0399999999999991 21.0399999999999991 Ar
    velocity 0.9005864764917372 0.4188375279151910 -0.5391021818765057
atom 26.2999999999999972 21.0399999999999991 21.0399999999999991 Ar
    velocity -0.0214213389821780 -1.0948875650533350 1.1881761263731181
atom 0.0000000000000000 26.2999999999999972 21.0399999999999991 Ar
    velocity -0.0960720523572633 -0.5310190250097940 -1.0789427306854309
atom 5.2600000000000007 26.2999999999999972 21.0399999999999991 Ar
    velocity 0.2348221991317276 0.5863980470533087 0.2442241982819016
atom 10.5200000000000014 26.2999999999999972 21.0399999999999991 Ar
    velocity -1.9928451402564307 0.5005924372816867 -0.9881658381649563
atom 15.7799999999999994 26.2999999999999972 21.0399999999999991 Ar
    velocity 0.0104524865897582 -1.2811835887466647 -0.7247130081254192
atom 21.0400000000000027 26.2999999999999972 21.0399999999999991 Ar
    velocity -0.1263108040201164 -0.5013493879438882 0.5708260253480034
atom 26.2999999999999972 26.2999999999999972 21.0399999999999991 Ar
    velocity -0.0586564351659480 -1.2398431486279062 -0.0678586425422993
atom 0.0000000000000000 31.5599999999999987 21.0399999999999991 Ar
    velocity -0.2119894592717614 0.4360311701563314 -0.9751266582987546
atom 5.2600000000000007 31.5599999999999987 21.0399999999999991 Ar
    velocity -0.7997800178381170 0.4484306563106613 -0.2287905711030857
atom 10.5200000000000014 31.5599999999999987 21.0399999999999991 Ar
    velocity 1.4487701826781783 -0.6492386825130551 1.1535844068657273
atom 15.7799999999999994 31.5599999999999987 21.0399999999999991 Ar
    velocity -0.1293761153206174 1.6943297463860985 0.8339571070791538
atom 21.0400000000000027 31.5599999999999987 21.0399999999999991 Ar
    velocity -0.0353895060233177 2.2587244298992823 0.1549561744535268
atom 26.2999999999999972 31.5599999999999987 21.0399999999999991 Ar
    velocity -0.1924708556409024 -0.0610484750123766 -0.3843866361462995
atom 0.0000000000000000 0.0000000000000000 26.2999999999999972 Ar
    velocity 0.6492235200787276 0.3692462493335422 0.0055051364130699
atom 5.2600000000000007 0.0000000000000000 26.2999999999999972 Ar
    velocity 1.2002105859169172 -0.6351592610374520 0.7928326522831327
atom 10.5200000000000014 0.0000000000000000 26.2999999999999972 Ar
    velocity 0.0891500635911260 0.9938572671265471 -0.8808214036374608