#=======================================================
# FHI-aims file: argon_8788_30k.in
# Created using the Atomic Simulation Environment (ASE)
# Tue Jun 15 19:24:54 2021
#=======================================================
lattice_vector 68.3799999999999955 0.0000000000000000 0.0000000000000000 
lattice_vector 0.0000000000000000 68.3799999999999955 0.0000000000000000 
lattice_vector 0.0000000000000000 0.0000000000000000 68.3799999999999955 
atom 0.0000000000000000 0.0000000000000000 0.0000000000000000 Ar
    velocity -0.7789942279490092 0.2841926876681710 0.3589010572270975
atom 5.2599999999999998 0.0000000000000000 0.0000000000000000 Ar
    velocity 0.1596144582183955 1.5489649295438204 0.8408625089785943
atom 10.5199999999999996 0.0000000000000000 0.0000000000000000 Ar
    velocity -0.0481974985451901 -0.4616406629658164 1.9679075430059543
atom 15.7799999999999976 0.0000000000000000 0.0000000000000000 Ar
    velocity -0.3453768803667859 0.4950935840709183 0.2180823120431560
atom 21.0399999999999991 0.0000000000000000 0.0000000000000000 Ar
    velocity -0.1615830338540670 0.7839398514307160 -0.6687242071389599
atom 26.3000000000000007 0.0000000000000000 0.0000000000000000 Ar
    velocity -0.0568549377925939 -0.0708539495020867 0.4162816424642730
atom 31.5599999999999952 0.0000000000000000 0.0000000000000000 Ar
    velocity -1.0052089094208849 -1.4644004283904188 0.5470414053633360
atom 36.8199999999999932 0.0000000000000000 0.0000000000000000 Ar
    velocity 0.9851757795833652 -0.8391342737298378 1.0230095560645946
atom 42.0799999999999983 0.0000000000000000 0.0000000000000000 Ar
    velocity -0.6334059255562905 -0.7463069336042272 1.8040436615148330
atom 47.3399999999999963 0.0000000000000000 0.0000000000000000 Ar
    velocity 0.4116795463437703 1.3279056842566470 1.0541701123717326
atom 52.6000000000000014 0.0000000000000000 0.0000000000000000 Ar
    velocity -1.0413629335500001 0.9595544646388261 -0.5770131152156787
atom 57.8600000000000065 0.0000000000000000 0.0000000000000000 Ar
    velocity 0.0354888894959572 0.5744382249110594 1.1619658108487605
atom 63.1199999999999903 0.0000000000000000 0.0000000000000000 Ar
    velocity 0.5598151459454371 -0.7011728261255188 0.8685811260621614
atom 0.0000000000000000 5.2599999999999998 0.0000000000000000 Ar
    velocity 0.2890160381728717 0.1767642043651778 -0.5862459879618813
atom 5.2599999999999998 5.2599999999999998 0.0000000000000000 Ar
    velocity -0.3389338730197741 0.0649515749087159 2.2902767032726232
atom 10.5199999999999996 5.2599999999999998 0.0000000000000000 Ar
    velocity -0.2076107606746559 2.2063753488397646 -0.1398184557318290
atom 15.7799999999999976 5.2599999999999998 0.0000000000000000 Ar
    velocity 1.7255146811468984 1.0896181745910716 1.8953125808054005
atom 21.0399999999999991 5.2599999999999998 0.0000000000000000 Ar
    velocity 0.2285365741159721 -0.6946009438444586 -0.3427260933851846
atom 26.3000000000000007 5.2599999999999998 0.0000000000000000 Ar
    velocity 0.6494076149265532 -0.5210838955864218 0.9028278152576006
atom 31.5599999999999952 5.2599999999999998 0.0000000000000000 Ar
    velocity 0.1893144623516683 0.2878084684008114 -0.3252864448644703
atom 36.8199999999999932 5.2599999999999998 0.0000000000000000 Ar
    velocity -0.1778806259397606 -0.0765387014450095 0.8004042779255238
atom 42.0799999999999983 5.2599999999999998 0.0000000000000000 Ar
    velocity -0.0776160544889911 -1.0274802286146147 0.4952154100225146
atom 47.3399999999999963 5.2599999999999998 0.0000000000000000 Ar
    velocity -0.4557282213958879 -0.5584530593846773 0.9836735434437232
atom 52.6000000000000014 5.2599999999999998 0.0000000000000000 Ar
    velocity 0.1429900061402831 -0.5725925094790550 1.4102628695299961
atom 57.8600000000000065 5.2599999999999998 0.0000000000000000 Ar
    velocity 0.0788668283534442 -0.1597360017715107 -0.7898170407512579
atom 63.1199999999999903 5.2599999999999998 0.0000000000000000 Ar
    velocity -0.4957758708772655 -0.3976576658082132 0.2211634952233101
atom 0.0000000000000000 10.5199999999999996 0.0000000000000000 Ar
    velocity -0.3062933566968409 -0.6813040439834493 -1.8251037303457054
atom 5.2599999999999998 10.5199999999999996 0.0000000000000000 Ar
    velocity 1.7090165473177514 -0.8733954503052471 0.0767967470508442
atom 10.5199999999999996 10.5199999999999996 0.0000000000000000 Ar
    velocity -0.1392635622648197 0.6259645499860108 0.3174143442630862
atom 15.7799999999999976 10.5199999999999996 0.0000000000000000 Ar
    velocity -0.9621492024074689 0.2666552849651235 0.6481261570391373
atom 21.0399999999999991 10.5199999999999996 0.0000000000000000 Ar
    velocity 0.9760171458189557 -0.3592205251536272 1.1067946692437498
atom 26.3000000000000007 10.5199999999999996 0.0000000000000000 Ar
    velocity 1.4668323301100989 0.8302999889276169 0.6991293213780241
atom 31.5599999999999952 10.5199999999999996 0.0000000000000000 Ar
    velocity 1.3547741370521140 -0.4090539415642724 -0.2224277178239225
atom 36.8199999999999932 10.5199999999999996 0.0000000000000000 Ar
    velocity 0.7762367086980304 -0.5516071532496925 0.4924733691293425
atom 42.0799999999999983 10.5199999999999996 0.0000000000000000 Ar
    velocity -0.3448700349174224 0.6834298105827918 1.9546908228110493
atom 47.3399999999999963 10.5199999999999996 0.0000000000000000 Ar
    velocity 0.2336186038430854 1.1027883826282059 -0.1570781489773131
atom 52.6000000000000014 10.5199999999999996 0.0000000000000000 Ar
    velocity 0.6964754999154137 0.6531798197046194 1.1505853154111310
atom 57.8600000000000065 10.5199999999999996 0.0000000000000000 Ar
    velocity 0.5022648109341045 2.5606754985932305 0.7460200893194481
atom 63.1199999999999903 10.5199999999999996 0.0000000000000000 Ar
    velocity 1.3548574975824308 -1.4089105535732818 -1.5216927382052381
atom 0.0000000000000000 15.7799999999999976 0.0000000000000000 Ar
    velocity 0.5306928426665123 0.8166267891985554 -0.3529015872719907
atom 5.2599999999999998 15.7799999999999976 0.0000000000000000 Ar
    velocity -0.2206804769131556 -0.4242204147240741 0.6058521930715169
atom 10.5199999999999996 15.7799999999999976 0.0000000000000000 Ar
    velocity 1.4335069809654566 -0.0955066016409734 -1.2607682042354127
atom 15.7799999999999976 15.7799999999999976 0.0000000000000000 Ar
    velocity -0.8717583537469389 -0.4220947727869682 0.1370136246949168
atom 21.0399999999999991 15.7799999999999976 0.0000000000000000 Ar
    velocity 0.1853997855013055 0.6718575910317826 -0.5994399812752935
atom 26.3000000000000007 15.7799999999999976 0.0000000000000000 Ar
    velocity 0.1683362294671077 0.8586111225405977 -0.0551234473184723
atom 31.5599999999999952 15.7799999999999976 0.0000000000000000 Ar
    velocity 1.2841744414271552 -0.3110697126787801 -0.0805592724799184
atom 36.8199999999999932 15.7799999999999976 0.0000000000000000 Ar
    velocity 0.6204833182846309 1.7362971424351952 -0.8288389549610691
atom 42.0799999999999983 15.7799999999999976 0.0000000000000000 Ar
    velocity -1.2623666576280532 1.8580421785200192 1.3887757336200472
atom 47.3399999999999963 15.7799999999999976 0.0000000000000000 Ar
    velocity 0.1178528181933261 -0.6463871615460639 -0.2138337855492636
atom 52.6000000000000014 15.7799999999999976 0.0000000000000000 Ar
    velocity -1.3171646528279368 1.1354829582851984 -0.2385532192757503
atom 57.8600000000000065 15.7799999999999976 0.0000000000000000 Ar
    velocity -0.5622610619615636 -0.2027227658664953 0.4764021111767136
atom 63.1199999999999903 15.7799999999999976 0.0000000000000000 Ar
    velocity -1.0473877600281198 -0.1529686738549422 -0.1458561636704721
atom 0.0000000000000000 21.0399999999999991 0.0000000000000000 Ar
    velocity -0.6297551927179170 -0.4500704995834277 0.8167849251628841
atom 5.2599999999999998 21.0399999999999991 0.0000000000000000 Ar
    velocity -0.3364847397865399 1.4267633515655396 1.0831076261746151
atom 10.5199999999999996 21.0399999999999991 0.0000000000000000 Ar
    velocity 0.3306725453601972 0.3667221417685248 1.7224456322664383
atom 15.7799999999999976 21.0399999999999991 0.0000000000000000 Ar
    velocity 0.8984249813836591 0.1916962303806589 -0.9151203673890976
atom 21.0399999999999991 21.0399999999999991 0.0000000000000000 Ar
    velocity 1.1903112532085778 0.0233979447130460 1.0294597238461638
atom 26.3000000000000007 21.0399999999999991 0.0000000000000000 Ar
    velocity 0.0350602435727441 0.0942287718281009 0.0658429555373579
atom 31.5599999999999952 21.0399999999999991 0.0000000000000000 Ar
    velocity -0.3926665962697122 0.1183478481956385 0.2019571225296728
atom 36.8199999999999932 21.0399999999999991 0.0000000000000000 Ar
    velocity -0.0030213992637848 -0.0425715893315634 -0.2260623754920983
atom 42.0799999999999983 21.0399999999999991 0.0000000000000000 Ar
    velocity -0.1824516891918292 -0.7407629471415709 0.0070151392961459
atom 47.3399999999999963 21.0399999999999991 0.0000000000000000 Ar
    velocity 0.7950652850861730 -0.2916099825394312 -0.5610367551226548
atom 52.6000000000000014 21.0399999999999991 0.0000000000000000 Ar
    velocity -0.2995889538882479 -0.7775829168954213 -0.5404413685623140
atom 57.8600000000000065 21.0399999999999991 0.0000000000000000 Ar
    velocity -0.1413554681471695 -0.8438349042981331 -0.4609714220148353
atom 63.1199999999999903 21.0399999999999991 0.0000000000000000 Ar
    velocity 0.5368077162259266 2.3465662645147685 -0.9002533079624866
atom 0.0000000000000000 26.3000000000000007 0.0000000000000000 Ar
    velocity 0.5116769905781823 -1.0748370764816186 -0.1174406971578053
atom 5.2599999999999998 26.3000000000000007 0.0000000000000000 Ar
    velocity 0.9852073717026618 0.3831309605565691 -0.7808671195867333
atom 10.5199999999999996 26.3000000000000007 0.0000000000000000 Ar
    velocity 0.7965771727718911 -1.0368949274766373 1.0285401210211094
atom 15.7799999999999976 26.3000000000000007 0.0000000000000000 Ar
    velocity -0.6004076481953305 -1.3945291409661638 -0.0684918001540342
atom 21.0399999999999991 26.3000000000000007 0.0000000000000000 Ar
    velocity 0.2448887932793081 -1.8718638242502890 -0.5019821720779059
atom 26.3000000000000007 26.3000000000000007 0.0000000000000000 Ar
    velocity 0.5721166712107620 0.2301204740857897 -0.3709202879317429
atom 31.5599999999999952 26.3000000000000007 0.0000000000000000 Ar
    velocity -0.4273249012496365 1.2693388599305151 0.3311015934880167
atom 36.8199999999999932 26.3000000000000007 0.0000000000000000 Ar
    velocity -0.3712392597123148 0.5224393337246773 -0.4841885653355141
atom 42.0799999999999983 26.3000000000000007 0.0000000000000000 Ar
    velocity 0.2292117487186254 -0.5340033916743733 -0.5351362816806942
atom 47.3399999999999963 26.3000000000000007 0.0000000000000000 Ar
    velocity 0.2869349152886609 0.5612306158673354 1.4336152992580473
atom 52.6000000000000014 26.3000000000000007 0.0000000000000000 Ar
    velocity -0.6772361042772470 -0.7574590447059072 0.0759144809944801
atom 57.8600000000000065 26.3000000000000007 0.0000000000000000 Ar
    velocity 0.0545341968967640 -0.3680771253517837 -0.1655523206399405
atom 63.1199999999999903 26.3000000000000007 0.0000000000000000 Ar
    velocity 0.9464916620128554 -0.8114632089912676 0.9824325534293411
atom 0.0000000000000000 31.5599999999999952 0.0000000000000000 Ar
    velocity 0.2591266015225485 1.2559479837037562 0.1738448277699633
atom 5.2599999999999998 31.5599999999999952 0.0000000000000000 Ar
    velocity 0.2660046590580804 0.0119469301943429 -0.0947405029740243
atom 10.5199999999999996 31.5599999999999952 0.0000000000000000 Ar
    velocity 0.1404977247036364 -1.2813226330627656 0.6150883092773083
atom 15.7799999999999976 31.5599999999999952 0.0000000000000000 Ar
    velocity -0.3438205888592658 1.6118878641313688 1.2169398914547040
atom 21.0399999999999991 31.5599999999999952 0.0000000000000000 Ar
    velocity 0.2951513711491697 -0.2483094181833160 1.0487380601226630
atom 26.3000000000000007 31.5599999999999952 0.0000000000000000 Ar
    velocity 0.4398247797613125 -0.0627414826465701 -0.8532602496303427
atom 31.5599999999999952 31.5599999999999952 0.0000000000000000 Ar
    velocity -1.0529374175902073 -0.6307781264343223 0.2569464870689991
atom 36.8199999999999932 31.5599999999999952 0.0000000000000000 Ar
    velocity -0.3944102258774186 0.3103027134916286 -0.9391639203602618
atom 42.0799999999999983 31.5599999999999952 0.0000000000000000 Ar
    velocity -0.1706227456952972 0.8374969721991432 2.2567069162211371
atom 47.3399999999999963 31.5599999999999952 0.0000000000000000 Ar
    velocity 0.7850469826157789 0.0908874981575054 0.2384252696201511
atom 52.6000000000000014 31.5599999999999952 0.0000000000000000 Ar
    velocity 0.6646514676558958 0.7763302609940173 -0.9408014453936133
atom 57.8600000000000065 31.5599999999999952 0.0000000000000000 Ar
    velocity -1.5348649448764817 -0.3560978389843572 0.7053516680985448
atom 63.1199999999999903 31.5599999999999952 0.0000000000000000 Ar
    velocity -0.4203890142747026 -0.9685172011206565 -0.1761566491762975
atom 0.0000000000000000 36.8199999999999932 0.0000000000000000 Ar
    velocity 0.1679533363537354 -0.5248568779245466 -1.6461359336603398
atom 5.2599999999999998 36.8199999999999932 0.0000000000000000 Ar
    velocity -1.6200538225643895 -0.4838689999453332 -0.3176224629284470
atom 10.5199999999999996 36.8199999999999932 0.0000000000000000 Ar
    velocity 0.4060170631271947 0.5150018403362605 -0.0600196457312067
atom 15.7799999999999976 36.8199999999999932 0.0000000000000000 Ar
    velocity 1.0899318425207536 -1.1891886014869666 -0.7193040561441133
atom 21.0399999999999991 36.8199999999999932 0.0000000000000000 Ar
    velocity -0.8700605146549920 0.0344040667346006 -0.5217714675222060
atom 26.3000000000000007 36.8199999999999932 0.0000000000000000 Ar
    velocity -0.0413734857337043 -0.4053756097677227 0.8808470135477421
atom 31.5599999999999952 36.8199999999999932 0.0000000000000000 Ar
    velocity 0.4816556305639649 -1.1248492975847475 0.0613809524659943
atom 36.8199999999999932 36.8199999999999932 0.0000000000000000 Ar
    velocity -0.1229214519603202 1.1296269751582366 0.5576132726874298
atom 42.0799999999999983 36.8199999999999932 0.0000000000000000 Ar
    velocity 0.8648008488988191 0.0278177349887750 -0.3657111230030426
atom 47.3399999999999963 36.8199999999999932 0.0000000000000000 Ar
    velocity -0.6546033410531316 -0.1409170206316960 0.2005921154415525
atom 52.6000000000000014 36.8199999999999932 0.0000000000000000 Ar
    velocity -0.3448187547498489 -0.0202497454052177 -1.4241129995207928
atom 57.8600000000000065 36.8199999999999932 0.0000000000000000 Ar
    velocity 0.8232874522364063 -0.9329893917811451 -1.1755899138135604
atom 63.1199999999999903 36.8199999999999932 0.0000000000000000 Ar
    velocity 0.2444671052393190 1.0144396732156904 0.1000090144139520
atom 0.0000000000000000 42.0799999999999983 0.0000000000000000 Ar
    velocity 1.5152392294230721 -0.7417552024057124 -0.2806473722223531
atom 5.2599999999999998 42.0799999999999983 0.0000000000000000 Ar
    velocity 0.2491438729920904 -0.4540859819756126 1.5023267773297031
atom 10.5199999999999996 42.0799999999999983 0.0000000000000000 Ar
    velocity 0.1789591865452383 -1.2356916135330376 0.0165969545211400
atom 15.7799999999999976 42.0799999999999983 0.0000000000000000 Ar
    velocity 1.7522334118534337 0.6317689234893545 -0.5495861970857179
atom 21.0399999999999991 42.0799999999999983 0.0000000000000000 Ar
    velocity -0.0953422950428908 -0.5482783847865930 1.3548015187520661
atom 26.3000000000000007 42.0799999999999983 0.0000000000000000 Ar
    velocity -0.8910176146176629 -0.0056150887013620 1.6585035830612873
atom 31.5599999999999952 42.0799999999999983 0.0000000000000000 Ar
    velocity 0.4255601996452191 -0.0602853435984458 1.0625467649772555
atom 36.8199999999999932 42.0799999999999983 0.0000000000000000 Ar
    velocity -0.4572982054090861 0.4722551782899257 -0.8519852836865488
atom 42.0799999999999983 42.0799999999999983 0.0000000000000000 Ar
    velocity 0.6649918524796083 0.0876146720291890 0.0723927141811997
atom 47.3399999999999963 42.0799999999999983 0.0000000000000000 Ar
    velocity -0.0175481116254148 -0.7347716740817515 -1.1517349885984558
atom 52.6000000000000014 42.0799999999999983 0.0000000000000000 Ar
    velocity 0.3440677390629919 -1.1724218284423449 -0.3590287304964540
atom 57.8600000000000065 42.0799999999999983 0.0000000000000000 Ar
    velocity 0.2998477674435539 -0.9500412619385601 -0.6568847505975828
atom 63.1199999999999903 42.0799999999999983 0.0000000000000000 Ar
    velocity -0.0035634781941651 0.1199168919467695 1.5355548060268718
atom 0.0000000000000000 47.3399999999999963 0.0000000000000000 Ar
    velocity 0.5425749222937710 -1.6441174316662674 -1.1522105815439210
atom 5.2599999999999998 47.3399999999999963 0.0000000000000000 Ar
    velocity -0.3485587967003613 -2.0874368436007793 -1.0328622474274871
atom 10.5199999999999996 47.3399999999999963 0.0000000000000000 Ar
    velocity 0.2843545500151069 0.0318502507618023 -0.6771000996972578
atom 15.7799999999999976 47.3399999999999963 0.0000000000000000 Ar
    velocity 1.2046938718323248 -0.3997537606876853 -0.6853609394344313
atom 21.0399999999999991 47.3399999999999963 0.0000000000000000 Ar
    velocity 1.4308974884459587 1.1817977926541114 -1.1124570502288715
atom 26.3000000000000007 47.3399999999999963 0.0000000000000000 Ar
    velocity -0.1161329451275534 1.3050712625936602 -1.0309270435148270
atom 31.5599999999999952 47.3399999999999963 0.0000000000000000 Ar
    velocity -0.2095192933178290 -1.0899730699374486 0.2193220694759918
atom 36.8199999999999932 47.3399999999999963 0.0000000000000000 Ar
    velocity -0.1723116904496629 0.3541902798969345 1.1281407999673048
atom 42.0799999999999983 47.3399999999999963 0.0000000000000000 Ar
    velocity -0.3329232156786416 0.3392395128713454 0.8981248185781521
atom 47.3399999999999963 47.3399999999999963 0.0000000000000000 Ar
    velocity 0.7684522644823933 0.1266360385184311 0.7561922637012513
atom 52.6000000000000014 47.3399999999999963 0.0000000000000000 Ar
    velocity 0.1870029881478363 -0.3073280511717892 0.3795432081900518
atom 57.8600000000000065 47.3399999999999963 0.0000000000000000 Ar
    velocity -0.5592299232211606 -0.6403501054918821 0.0558849866136489
atom 63.1199999999999903 47.3399999999999963 0.0000000000000000 Ar
    velocity 0.9636532133293917 -0.0847053206465917 0.6197319097881616
atom 0.0000000000000000 52.6000000000000014 0.0000000000000000 Ar
    velocity -1.4735584996681503 -0.9126361645304703 0.3692301806826642
atom 5.2599999999999998 52.6000000000000014 0.0000000000000000 Ar
    velocity 1.7995376392589624 -0.3309208305310638 -1.8229194092075289
atom 10.5199999999999996 52.6000000000000014 0.0000000000000000 Ar
    velocity 1.2294202523425031 -0.2546523790325180 -1.4375827764134335
atom 15.7799999999999976 52.6000000000000014 0.0000000000000000 Ar
    velocity -1.0692557797494493 0.3400931475607369 -0.1313420148573295
atom 21.0399999999999991 52.6000000000000014 0.0000000000000000 Ar
    velocity 0.4331041239137552 -0.2276031297228135 -0.6412541841580943
atom 26.3000000000000007 52.6000000000000014 0.0000000000000000 Ar
    velocity -0.7808517679334155 0.4073374476621383 -1.6074657871030091
atom 31.5599999999999952 52.6000000000000014 0.0000000000000000 Ar
    velocity -0.0426776067546918 0.0054927413710219 1.2325988391419214
atom 36.8199999999999932 52.6000000000000014 0.0000000000000000 Ar
    velocity -0.5014053042526860 1.1164592827910793 0.2526420338706871
atom 42.0799999999999983 52.6000000000000014 0.0000000000000000 Ar
    velocity 1.6699760203830500 -1.4869203677209386 0.1087592547890800
atom 47.3399999999999963 52.6000000000000014 0.0000000000000000 Ar
    velocity -1.4691931081243690 0.6342567993454267 0.3409881252721033
atom 52.6000000000000014 52.6000000000000014 0.0000000000000000 Ar
    velocity -0.7592979705107655 0.7614124537956952 0.2121922308012470
atom 57.8600000000000065 52.6000000000000014 0.0000000000000000 Ar
    velocity 0.8289361832367153 -0.6153167534478376 1.2587493840955049
atom 63.1199999999999903 52.6000000000000014 0.0000000000000000 Ar
    velocity 0.5921048629024328 0.1923072233761675 0.1873815896110967
atom 0.0000000000000000 57.8600000000000065 0.0000000000000000 Ar
    velocity 0.0082562135962408 0.4479028633553880 -0.3342827406764102
atom 5.2599999999999998 57.8600000000000065 0.0000000000000000 Ar
    velocity -0.9726097555918093 -0.4556620352342609 -0.0357390753848118
atom 10.5199999999999996 57.8600000000000065 0.0000000000000000 Ar
    velocity -0.2022599795765428 -1.0878683898093864 -0.3976429989926548
atom 15.7799999999999976 57.8600000000000065 0.0000000000000000 Ar
    velocity 1.1191324280953721 0.5471213334709838 0.2104764841931419
atom 21.0399999999999991 57.8600000000000065 0.0000000000000000 Ar
    velocity -0.4581480339619472 -1.9171792415941300 1.2147579859254307
atom 26.3000000000000007 57.8600000000000065 0.0000000000000000 Ar
    velocity -0.2726774152162540 -1.0618379006531484 -0.2011257687709677
atom 31.5599999999999952 57.8600000000000065 0.0000000000000000 Ar
    velocity 0.3950571127622315 -1.0927898662081510 -0.7980275130585176
atom 36.8199999999999932 57.8600000000000065 0.0000000000000000 Ar
    velocity 0.1105886581388012 1.1649685090090420 -0.6234057715583636
atom 42.0799999999999983 57.8600000000000065 0.0000000000000000 Ar
    velocity -0.8017005096744455 0.0477561548392690 0.9905400221480350
atom 47.3399999999999963 57.8600000000000065 0.0000000000000000 Ar
    velocity 0.4974878809207904 -0.9919261219371104 -0.1151451585919261
atom 52.6000000000000014 57.8600000000000065 0.0000000000000000 Ar
    velocity 0.7774472654674949 0.8656393561941174 0.2995418693300783
atom 57.8600000000000065 57.8600000000000065 0.0000000000000000 Ar
    velocity 0.5176577090380758 0.5992269074271128 0.1312171037584508
atom 63.1199999999999903 57.8600000000000065 0.0000000000000000 Ar
    velocity 0.7438406497437887 -0.1655543312106702 0.6411873670781641
atom 0.0000000000000000 63.1199999999999903 0.0000000000000000 Ar
    velocity 0.0908167246067978 0.5390132648390782 1.0832315989876617
atom 5.2599999999999998 63.1199999999999903 0.0000000000000000 Ar
    velocity 1.2829594949261343 -0.0346946496425159 0.4663411383822565
atom 10.5199999999999996 63.1199999999999903 0.0000000000000000 Ar
    velocity 0.4234137639002134 -0.7180668505348337 -0.0185829145754057
atom 15.7799999999999976 63.1199999999999903 0.0000000000000000 Ar
    velocity 0.8897516254390399 -0.3637128275847317 0.6370937802054711
atom 21.0399999999999991 63.1199999999999903 0.0000000000000000 Ar
    velocity 0.6336770360941190 0.8921881330870547 0.9012442582848409
atom 26.3000000000000007 63.1199999999999903 0.0000000000000000 Ar
    velocity 0.7385928029236301 0.4134697385141903 0.1920036599170684
atom 31.5599999999999952 63.1199999999999903 0.0000000000000000 Ar
    velocity -0.3480774137527620 0.8969808146691041 -0.0825303808702653
atom 36.8199999999999932 63.1199999999999903 0.0000000000000000 Ar
    velocity -0.3278431402990464 0.1430734052140129 0.5441388164517211
atom 42.0799999999999983 63.1199999999999903 0.0000000000000000 Ar
    velocity -0.3395379412935918 0.2313266676945206 0.4535724783419763
atom 47.3399999999999963 63.1199999999999903 0.0000000000000000 Ar
    velocity -1.4054927865585041 1.3735446492940111 -0.8946967555416001
atom 52.6000000000000014 63.1199999999999903 0.0000000000000000 Ar
    velocity 0.0655349981604409 -1.0895563324649420 1.8840879642551109
atom 57.8600000000000065 63.1199999999999903 0.0000000000000000 Ar
    velocity 0.5964116139694251 -0.0209883979682587 0.3795575541622585
atom 63.1199999999999903 63.1199999999999903 0.0000000000000000 Ar
    velocity 1.6034660532127458 1.3405212412105170 0.6745836338520033
atom 0.0000000000000000 0.0000000000000000 5.2599999999999998 Ar
    velocity -1.8658026513065402 0.0304061485095027 -0.2788440891454099
atom 5.2599999999999998 0.0000000000000000 5.2599999999999998 Ar
    velocity 0.6833209473642976 0.1160762019478112 -0.7886037640104101
atom 10.5199999999999996 0.0000000000000000 5.2599999999999998 Ar
    velocity 0.9657734486361773 -0.0661396652427927 2.1152443684659334
atom 15.7799999999999976 0.0000000000000000 5.2599999999999998 Ar
    velocity -0.3435463535506633 -0.7210692383845145 0.8992485143965778
atom 21.0399999999999991 0.0000000000000000 5.2599999999999998 Ar
    velocity 0.2922296463759640 1.5059951313591198 -1.6142326735515742
atom 26.3000000000000007 0.0000000000000000 5.2599999999999998 Ar
    velocity -0.6926784961689250 -0.1591641950735821 0.4821241956671513
atom 31.5599999999999952 0.0000000000000000 5.2599999999999998 Ar
    velocity 0.4185392705297581 -0.5184077997883730 -0.4082556724509106
atom 36.8199999999999932 0.0000000000000000 5.2599999999999998 Ar
    velocity 0.1655447818354155 0.4795557441142809 0.2342992821868404
atom 42.0799999999999983 0.0000000000000000 5.2599999999999998 Ar
    velocity 0.7307424197818153 0.3704217665538037 0.0082193441423160
atom 47.3399999999999963 0.0000000000000000 5.2599999999999998 Ar
    velocity -1.7050794660794806 1.1474359533657539 1.8404618558116779
atom 52.6000000000000014 0.0000000000000000 5.2599999999999998 Ar
    velocity -0.1630242335231595 -0.6485740117136505 0.0741182631229628
atom 57.8600000000000065 0.0000000000000000 5.2599999999999998 Ar
    velocity 1.1465405420829802 -0.5736587974524154 -0.8482333351334248
atom 63.1199999999999903 0.0000000000000000 5.2599999999999998 Ar
    velocity -0.1368720460820375 -0.0973046858045715 -0.3666584525680385
atom 0.0000000000000000 5.2599999999999998 5.2599999999999998 Ar
    velocity 0.7065025216744090 0.7267449470181409 0.1168387905291614
atom 5.2599999999999998 5.2599999999999998 5.2599999999999998 Ar
    velocity 0.0104981060104866 0.1315639552510853 -1.4725724239062770
atom 10.5199999999999996 5.2599999999999998 5.2599999999999998 Ar
    velocity -0.8989538603275488 0.3931312118047410 -0.8577915567284518
atom 15.7799999999999976 5.2599999999999998 5.2599999999999998 Ar
    velocity -0.5969519552562055 -0.1495840702506326 0.3222530086228440
atom 21.0399999999999991 5.2599999999999998 5.2599999999999998 Ar
    velocity 0.5334766313879727 0.5406084168009345 0.3478720046502125
atom 26.3000000000000007 5.2599999999999998 5.2599999999999998 Ar
    velocity 1.4105272788283547 0.4893854252280215 0.7031011923101480
atom 31.5599999999999952 5.2599999999999998 5.2599999999999998 Ar
    velocity -0.3564392419735457 0.4376089178882260 1.0446198992584845
atom 36.8199999999999932 5.2599999999999998 5.2599999999999998 Ar
    velocity 0.2883223752363784 1.4096125957110124 -0.2248219173964593
atom 42.0799999999999983 5.2599999999999998 5.2599999999999998 Ar
    velocity 0.4549443037379731 -0.3542632886613988 -0.0845056550328979
atom 47.3399999999999963 5.2599999999999998 5.2599999999999998 Ar
    velocity 0.2837863081878105 -0.5433340822181744 1.6535096296520064
atom 52.6000000000000014 5.2599999999999998 5.2599999999999998 Ar
    velocity -1.0262701737821642 0.4525612117215240 0.2894599552612153
atom 57.8600000000000065 5.2599999999999998 5.2599999999999998 Ar
    velocity 0.5170386684962122 -1.0625746407541568 0.3932005406042006
atom 63.1199999999999903 5.2599999999999998 5.2599999999999998 Ar
    velocity -0.6585457035735390 -0.6175125803167058 -0.0229101803347736
atom 0.0000000000000000 10.5199999999999996 5.2599999999999998 Ar
    velocity -0.9896149425936027 0.0996230504627644 -0.1034943495534467
atom 5.2599999999999998 10.5199999999999996 5.2599999999999998 Ar
    velocity 0.0914243135797165 -0.9272177889380157 -0.0262621613360418
atom 10.5199999999999996 10.5199999999999996 5.2599999999999998 Ar
    velocity 0.0750779012209348 0.0364545540339835 0.1771600828627756
atom 15.7799999999999976 10.5199999999999996 5.2599999999999998 Ar
    velocity 0.5250416276238673 0.7465847141918466 0.3149759146786203
atom 21.0399999999999991 10.5199999999999996 5.2599999999999998 Ar
    velocity -1.2421646118478704 0.7382376751342482 -1.5886641125756946
atom 26.3000000000000007 10.5199999999999996 5.2599999999999998 Ar
    velocity -0.9662150101770752 -0.5396220880947993 0.0596382936660590
atom 31.5599999999999952 10.5199999999999996 5.2599999999999998 Ar
    velocity -1.1715594179702353 -0.1513814706126686 0.7054924072941472
atom 36.8199999999999932 10.5199999999999996 5.2599999999999998 Ar
    velocity 1.0964633783030466 0.8971228791550691 -0.5227191216119216
atom 42.0799999999999983 10.5199999999999996 5.2599999999999998 Ar
    velocity 0.6387900864989250 0.1121067017052175 -0.2121672099741498
atom 47.3399999999999963 10.5199999999999996 5.2599999999999998 Ar
    velocity -1.6911409505169013 -0.9221583007788646 -0.2125282090514450
atom 52.6000000000000014 10.5199999999999996 5.2599999999999998 Ar
    velocity -0.3927989908030376 -1.4220296897973879 -0.0957726396214940
atom 57.8600000000000065 10.5199999999999996 5.2599999999999998 Ar
    velocity -0.7333075377157842 -0.0853258835129696 -0.3591267660897259
atom 63.1199999999999903 10.5199999999999996 5.2599999999999998 Ar
    velocity -0.0287834543952416 0.4697342865248592 -1.3950996348124123
atom 0.0000000000000000 15.7799999999999976 5.2599999999999998 Ar
    velocity 0.5768966800432597 0.7285930193069522 0.7035346380557093
atom 5.2599999999999998 15.7799999999999976 5.2599999999999998 Ar
    velocity -0.1430761099708448 0.8256942559181298 -0.9117679759198077
atom 10.5199999999999996 15.7799999999999976 5.2599999999999998 Ar
    velocity -0.1313649998419379 -1.5643365645781862 1.1367724867532494
atom 15.7799999999999976 15.7799999999999976 5.2599999999999998 Ar
    velocity 0.2356277320827966 0.0003736158996004 -0.9496681451375771
atom 21.0399999999999991 15.7799999999999976 5.2599999999999998 Ar
    velocity 0.6020922297685261 0.9762212411342499 0.5047753677185604
atom 26.3000000000000007 15.7799999999999976 5.2599999999999998 Ar
    velocity -0.6107099297160987 0.9646479278583830 0.4819776095183736