#=======================================================
# FHI-aims file: argon_6912_30k.in
# Created using the Atomic Simulation Environment (ASE)
# Tue Jun 15 19:24:52 2021
#=======================================================
lattice_vector 63.1199999999999974 0.0000000000000000 0.0000000000000000 
lattice_vector 0.0000000000000000 63.1199999999999974 0.0000000000000000 
lattice_vector 0.0000000000000000 0.0000000000000000 63.1199999999999974 
atom 0.0000000000000000 0.0000000000000000 0.0000000000000000 Ar
    velocity 0.0819877322027794 -0.9034496666515403 -0.7102590324361702
atom 5.2600000000000007 0.0000000000000000 0.0000000000000000 Ar
    velocity 0.1067773068127886 0.1000478441729500 -1.0831135463955668
atom 10.5200000000000014 0.0000000000000000 0.0000000000000000 Ar
    velocity -1.3281590946349924 0.7218377436558782 0.2408184798324653
atom 15.7799999999999994 0.0000000000000000 0.0000000000000000 Ar
    velocity -0.1014061325590190 -0.5872771896427177 -0.6319377026270946
atom 21.0400000000000027 0.0000000000000000 0.0000000000000000 Ar
    velocity -0.9747558810188097 -1.3165001605957192 1.5385677360895995
atom 26.2999999999999972 0.0000000000000000 0.0000000000000000 Ar
    velocity 0.4361492314921063 -1.6800994226271884 0.2274762942034483
atom 31.5599999999999987 0.0000000000000000 0.0000000000000000 Ar
    velocity 1.2870813741325671 0.2681256485294728 -0.4911613404959619
atom 36.8199999999999932 0.0000000000000000 0.0000000000000000 Ar
    velocity -0.6597059677653923 0.0684453535770272 -0.3310782466137129
atom 42.0800000000000054 0.0000000000000000 0.0000000000000000 Ar
    velocity -0.1682136028893367 -0.3253057799401873 -0.2859504272804274
atom 47.3399999999999963 0.0000000000000000 0.0000000000000000 Ar
    velocity -0.2775144507794352 -1.0147279829276596 -0.2787809318445897
atom 52.5999999999999943 0.0000000000000000 0.0000000000000000 Ar
    velocity -1.0769071323422519 -0.0399479894445922 -0.3862793752172299
atom 57.8599999999999923 0.0000000000000000 0.0000000000000000 Ar
    velocity -0.4830310852710303 -0.6260573177796399 0.2153412770949767
atom 0.0000000000000000 5.2600000000000007 0.0000000000000000 Ar
    velocity -0.2525883490464495 0.9306950441354132 0.5282896722012136
atom 5.2600000000000007 5.2600000000000007 0.0000000000000000 Ar
    velocity 1.0089608586793015 -0.2671222144818114 -0.4934198972151870
atom 10.5200000000000014 5.2600000000000007 0.0000000000000000 Ar
    velocity 0.4282881031112476 -1.3633878765877041 0.4318543608315690
atom 15.7799999999999994 5.2600000000000007 0.0000000000000000 Ar
    velocity 0.3798980299114601 0.5481360529727856 1.4622827732828108
atom 21.0400000000000027 5.2600000000000007 0.0000000000000000 Ar
    velocity 0.1684345990887432 0.4833541496665492 0.0621384210339757
atom 26.2999999999999972 5.2600000000000007 0.0000000000000000 Ar
    velocity 1.8341569270904896 1.8006981331175482 -0.7447176889516632
atom 31.5599999999999987 5.2600000000000007 0.0000000000000000 Ar
    velocity -0.0424296946989988 -0.5003168580056585 -0.0679439204157483
atom 36.8199999999999932 5.2600000000000007 0.0000000000000000 Ar
    velocity -0.5484081939456451 -0.3747168831822635 0.4708222507633045
atom 42.0800000000000054 5.2600000000000007 0.0000000000000000 Ar
    velocity -0.2543915470498914 -0.6141699625470417 0.6356142141193759
atom 47.3399999999999963 5.2600000000000007 0.0000000000000000 Ar
    velocity 0.0527018419516418 0.3196393566930052 -0.6644637464489130
atom 52.5999999999999943 5.2600000000000007 0.0000000000000000 Ar
    velocity 0.2209768252486692 1.5790490704332516 -0.6714473822176702
atom 57.8599999999999923 5.2600000000000007 0.0000000000000000 Ar
    velocity 0.5090031051863091 0.2117649050991129 -0.7196823966279384
atom 0.0000000000000000 10.5200000000000014 0.0000000000000000 Ar
    velocity 1.1617723396510951 -0.7385778816725992 -0.4448895301186324
atom 5.2600000000000007 10.5200000000000014 0.0000000000000000 Ar
    velocity -0.7210998705772284 -1.0752423724882358 -0.7857594657807226
atom 10.5200000000000014 10.5200000000000014 0.0000000000000000 Ar
    velocity 0.3588076409813179 0.4446986427352863 -0.0004233716878408
atom 15.7799999999999994 10.5200000000000014 0.0000000000000000 Ar
    velocity 0.3375319436188373 1.4165710718872708 0.2128424176964666
atom 21.0400000000000027 10.5200000000000014 0.0000000000000000 Ar
    velocity -1.3196201124317641 -0.4823846091913297 1.8639597530181304
atom 26.2999999999999972 10.5200000000000014 0.0000000000000000 Ar
    velocity 0.1467771378653356 1.2812527960324380 -0.9491130753769581
atom 31.5599999999999987 10.5200000000000014 0.0000000000000000 Ar
    velocity 0.4797386996514204 -0.1096357147314070 -0.1283669711719203
atom 36.8199999999999932 10.5200000000000014 0.0000000000000000 Ar
    velocity -0.3477378241547359 -0.9210012440287635 -0.2417459655654724
atom 42.0800000000000054 10.5200000000000014 0.0000000000000000 Ar
    velocity 1.4249432129098449 -0.3663597329562941 -0.0095980752214266
atom 47.3399999999999963 10.5200000000000014 0.0000000000000000 Ar
    velocity -1.2054989302911756 -0.4086984899490966 -1.0263634102039689
atom 52.5999999999999943 10.5200000000000014 0.0000000000000000 Ar
    velocity -1.7144881373443510 -0.1739488175589037 -0.1287239437983524
atom 57.8599999999999923 10.5200000000000014 0.0000000000000000 Ar
    velocity -1.4403371899145772 -1.6275102946512190 0.5393160450448984
atom 0.0000000000000000 15.7799999999999994 0.0000000000000000 Ar
    velocity 0.4842077945831963 0.4962200722147609 0.3668846039885567
atom 5.2600000000000007 15.7799999999999994 0.0000000000000000 Ar
    velocity 0.1925324141986572 -0.7220770959714047 -0.3720672601319987
atom 10.5200000000000014 15.7799999999999994 0.0000000000000000 Ar
    velocity 0.8233190751530605 -0.7361362880022614 -0.8454084189404805
atom 15.7799999999999994 15.7799999999999994 0.0000000000000000 Ar
    velocity 0.1392640000952776 -0.7240871782123531 -0.6374800084595529
atom 21.0400000000000027 15.7799999999999994 0.0000000000000000 Ar
    velocity -1.7982357032232419 0.4830520764206687 0.1716983881213102
atom 26.2999999999999972 15.7799999999999994 0.0000000000000000 Ar
    velocity -0.8588546098601422 -0.7340601174707728 1.3310464210364024
atom 31.5599999999999987 15.7799999999999994 0.0000000000000000 Ar
    velocity 0.5959216893571038 0.4462477888484245 1.0919003164737529
atom 36.8199999999999932 15.7799999999999994 0.0000000000000000 Ar
    velocity 0.7723664380796337 1.3133748082202890 0.3397282949876233
atom 42.0800000000000054 15.7799999999999994 0.0000000000000000 Ar
    velocity 0.6853217515065193 -0.5613163906072460 0.4275603653599863
atom 47.3399999999999963 15.7799999999999994 0.0000000000000000 Ar
    velocity 1.3902441893253816 -0.1227177884368478 0.4880789353854333
atom 52.5999999999999943 15.7799999999999994 0.0000000000000000 Ar
    velocity -0.2428555791750646 -0.0894273016877433 0.7994589343167733
atom 57.8599999999999923 15.7799999999999994 0.0000000000000000 Ar
    velocity 0.4700942461092302 -0.8449369346794974 -0.9322105615921999
atom 0.0000000000000000 21.0400000000000027 0.0000000000000000 Ar
    velocity 0.4448894969672335 0.3007624225069326 -0.4989976660918343
atom 5.2600000000000007 21.0400000000000027 0.0000000000000000 Ar
    velocity 0.0240680373610479 -0.0557518151517365 -1.4848141972350895
atom 10.5200000000000014 21.0400000000000027 0.0000000000000000 Ar
    velocity 1.0246933188485288 2.0263533728420198 1.0157479187282321
atom 15.7799999999999994 21.0400000000000027 0.0000000000000000 Ar
    velocity -0.3930845800873486 0.8921072901707600 1.1197039699751565
atom 21.0400000000000027 21.0400000000000027 0.0000000000000000 Ar
    velocity -0.1880997613516658 0.5996811449630850 -0.1987633990008441
atom 26.2999999999999972 21.0400000000000027 0.0000000000000000 Ar
    velocity 0.4518690956671406 -2.1919842878040954 -0.1520564936213483
atom 31.5599999999999987 21.0400000000000027 0.0000000000000000 Ar
    velocity -0.5895555284713119 -0.8501065601344584 -0.3427943071978480
atom 36.8199999999999932 21.0400000000000027 0.0000000000000000 Ar
    velocity 1.3086549389748687 0.6589336692632142 0.5491458180142652
atom 42.0800000000000054 21.0400000000000027 0.0000000000000000 Ar
    velocity 0.8176966331387744 0.4229561813599449 0.2351887783799948
atom 47.3399999999999963 21.0400000000000027 0.0000000000000000 Ar
    velocity 0.0932238583795576 -0.7051756132839776 0.8237874551067520
atom 52.5999999999999943 21.0400000000000027 0.0000000000000000 Ar
    velocity -0.5576078087729013 -1.5458972856789308 -0.3976433067501308
atom 57.8599999999999923 21.0400000000000027 0.0000000000000000 Ar
    velocity -0.0681409955006230 -1.0990869568480757 -0.0015359367175132
atom 0.0000000000000000 26.2999999999999972 0.0000000000000000 Ar
    velocity 0.1409849301300216 0.6957173315282681 0.9498585252728428
atom 5.2600000000000007 26.2999999999999972 0.0000000000000000 Ar
    velocity -0.4499099517453091 1.0760165639511190 0.5228479670963037
atom 10.5200000000000014 26.2999999999999972 0.0000000000000000 Ar
    velocity 0.1874639511332737 -1.3574067815172852 0.8693116576922910
atom 15.7799999999999994 26.2999999999999972 0.0000000000000000 Ar
    velocity 0.8043968653163102 0.9897225993524861 -0.6691186344456027
atom 21.0400000000000027 26.2999999999999972 0.0000000000000000 Ar
    velocity 0.8979691859405395 -0.7148365222636948 -0.6511073327713529
atom 26.2999999999999972 26.2999999999999972 0.0000000000000000 Ar
    velocity 0.1024068921530335 -1.2494462160610542 -0.0235094315126597
atom 31.5599999999999987 26.2999999999999972 0.0000000000000000 Ar
    velocity 0.1524423098740113 -0.5271290631651910 -1.4708700155357353
atom 36.8199999999999932 26.2999999999999972 0.0000000000000000 Ar
    velocity 1.4543418238012096 -0.3244705658188990 -0.0436576246530926
atom 42.0800000000000054 26.2999999999999972 0.0000000000000000 Ar
    velocity -0.6510542286960291 0.1996508194382112 0.0331876518881963
atom 47.3399999999999963 26.2999999999999972 0.0000000000000000 Ar
    velocity -1.9242573587275862 0.8400919993908876 0.3681453607670195
atom 52.5999999999999943 26.2999999999999972 0.0000000000000000 Ar
    velocity 0.9068272865455197 -0.0808491999646827 -0.0249466208738113
atom 57.8599999999999923 26.2999999999999972 0.0000000000000000 Ar
    velocity 0.5566508785964633 0.3204600829211005 1.0303747471393030
atom 0.0000000000000000 31.5599999999999987 0.0000000000000000 Ar
    velocity -0.3453701547842016 0.3863027894039185 -0.3361715447770339
atom 5.2600000000000007 31.5599999999999987 0.0000000000000000 Ar
    velocity -0.7934023077879099 0.7023274198545315 -0.0249648656451263
atom 10.5200000000000014 31.5599999999999987 0.0000000000000000 Ar
    velocity -1.0558306172989103 0.3620099634290122 -0.2616094009626292
atom 15.7799999999999994 31.5599999999999987 0.0000000000000000 Ar
    velocity 0.0812700855311788 -1.6203022008741108 -0.0848298652724885
atom 21.0400000000000027 31.5599999999999987 0.0000000000000000 Ar
    velocity 0.6027389116322659 0.7568229311052013 0.1034792661181068
atom 26.2999999999999972 31.5599999999999987 0.0000000000000000 Ar
    velocity 0.2708863175956526 0.3582575011260362 1.0344937164345669
atom 31.5599999999999987 31.5599999999999987 0.0000000000000000 Ar
    velocity 0.9568498819048823 0.5762155485461398 -0.7938898345931146
atom 36.8199999999999932 31.5599999999999987 0.0000000000000000 Ar
    velocity -0.2356922485879527 -0.7606811329342933 1.7017523921504953
atom 42.0800000000000054 31.5599999999999987 0.0000000000000000 Ar
    velocity -0.1810652936059579 -0.4340897845454566 -0.2010933236746013
atom 47.3399999999999963 31.5599999999999987 0.0000000000000000 Ar
    velocity 0.6128976093230932 0.0402669799343679 -0.4498218376634641
atom 52.5999999999999943 31.5599999999999987 0.0000000000000000 Ar
    velocity -2.3080488861379345 0.1102272308327233 -0.5287187142824245
atom 57.8599999999999923 31.5599999999999987 0.0000000000000000 Ar
    velocity -0.5828200144926450 -0.0510392562082596 -1.1982358921440812
atom 0.0000000000000000 36.8199999999999932 0.0000000000000000 Ar
    velocity 0.1900068544850665 -0.2585509853043655 0.6363132210520883
atom 5.2600000000000007 36.8199999999999932 0.0000000000000000 Ar
    velocity 0.7324953726234907 -0.3045628534893499 -1.1359707502145215
atom 10.5200000000000014 36.8199999999999932 0.0000000000000000 Ar
    velocity 0.3702109351908870 0.5108110961511624 -0.4024166171531753
atom 15.7799999999999994 36.8199999999999932 0.0000000000000000 Ar
    velocity 1.1191292575595653 0.0481478742480756 1.0505168584067350
atom 21.0400000000000027 36.8199999999999932 0.0000000000000000 Ar
    velocity -0.3621768956662798 1.0195182986652063 -1.0775656514764471
atom 26.2999999999999972 36.8199999999999932 0.0000000000000000 Ar
    velocity -0.4241414436246737 0.4334599006239096 0.5011278067306110
atom 31.5599999999999987 36.8199999999999932 0.0000000000000000 Ar
    velocity 0.3277821026884074 -0.3344425439999925 -0.4624556179544367
atom 36.8199999999999932 36.8199999999999932 0.0000000000000000 Ar
    velocity 1.1165548138346253 -0.1053608753104597 0.9860275632346962
atom 42.0800000000000054 36.8199999999999932 0.0000000000000000 Ar
    velocity -0.6324110482498065 0.9340245266596064 -1.5554106556261451
atom 47.3399999999999963 36.8199999999999932 0.0000000000000000 Ar
    velocity -0.7769617820623629 -0.3015121664054460 -0.7782088977449627
atom 52.5999999999999943 36.8199999999999932 0.0000000000000000 Ar
    velocity -0.1215765490574818 0.9869832705255605 0.3810639581366274
atom 57.8599999999999923 36.8199999999999932 0.0000000000000000 Ar
    velocity 0.3303770189769284 1.5140376539865663 0.2685933140966155
atom 0.0000000000000000 42.0800000000000054 0.0000000000000000 Ar
    velocity -0.4478141821629403 0.9960523981433121 -0.2504102343514188
atom 5.2600000000000007 42.0800000000000054 0.0000000000000000 Ar
    velocity 0.9262435444523978 -0.5807745711402380 -0.8435860112006657
atom 10.5200000000000014 42.0800000000000054 0.0000000000000000 Ar
    velocity -0.2661859854045701 0.3336813707366943 -0.3961269670862766
atom 15.7799999999999994 42.0800000000000054 0.0000000000000000 Ar
    velocity 0.3177161503119111 0.9957573333580602 0.8378158306167014
atom 21.0400000000000027 42.0800000000000054 0.0000000000000000 Ar
    velocity 1.1697127658843527 1.2695434990083774 -1.4501852787511638
atom 26.2999999999999972 42.0800000000000054 0.0000000000000000 Ar
    velocity -1.5037253887888968 0.4205080533776155 -0.7002550323522234
atom 31.5599999999999987 42.0800000000000054 0.0000000000000000 Ar
    velocity 0.2130410964583782 0.4902474881253869 1.4754116030645468
atom 36.8199999999999932 42.0800000000000054 0.0000000000000000 Ar
    velocity 0.4403401318567389 -0.4556716034686350 -0.6673216204857080
atom 42.0800000000000054 42.0800000000000054 0.0000000000000000 Ar
    velocity -0.1621557944069818 -0.3900115138808399 -0.7253453115698241
atom 47.3399999999999963 42.0800000000000054 0.0000000000000000 Ar
    velocity -0.5021579421107332 -0.0558096960250613 0.7998685934719610
atom 52.5999999999999943 42.0800000000000054 0.0000000000000000 Ar
    velocity 1.6903318549136288 1.5518343421136411 0.5747426397913832
atom 57.8599999999999923 42.0800000000000054 0.0000000000000000 Ar
    velocity -0.7664509820105528 0.3776249180745115 0.4212853251873268
atom 0.0000000000000000 47.3399999999999963 0.0000000000000000 Ar
    velocity -0.2170436421377597 0.5055881079964888 -0.8310425773139132
atom 5.2600000000000007 47.3399999999999963 0.0000000000000000 Ar
    velocity 0.6378947385164474 -0.1165106805542155 0.1899585973531030
atom 10.5200000000000014 47.3399999999999963 0.0000000000000000 Ar
    velocity -0.2450867514047555 -2.3609007420530843 0.2063515258447718
atom 15.7799999999999994 47.3399999999999963 0.0000000000000000 Ar
    velocity -0.0350712519354097 -0.3117573098948797 0.1100875757558400
atom 21.0400000000000027 47.3399999999999963 0.0000000000000000 Ar
    velocity -1.3254729934286951 0.9605642284730064 -0.0347559284008021
atom 26.2999999999999972 47.3399999999999963 0.0000000000000000 Ar
    velocity 0.7444967694979053 -1.2575874482746661 -0.4035270058801217
atom 31.5599999999999987 47.3399999999999963 0.0000000000000000 Ar
    velocity 1.0225964395698957 -0.1368546782456748 -0.8091800978510038
atom 36.8199999999999932 47.3399999999999963 0.0000000000000000 Ar
    velocity 0.6812048246810646 -0.7182704264613849 1.0833694394341036
atom 42.0800000000000054 47.3399999999999963 0.0000000000000000 Ar
    velocity -0.4460732095874391 -0.3087112643228753 -0.2786149044158306
atom 47.3399999999999963 47.3399999999999963 0.0000000000000000 Ar
    velocity 0.6798052991717447 0.6686154954233458 -0.2184801289351559
atom 52.5999999999999943 47.3399999999999963 0.0000000000000000 Ar
    velocity 0.8894292401716697 -1.0789982682009964 -0.3009523434841881
atom 57.8599999999999923 47.3399999999999963 0.0000000000000000 Ar
    velocity -0.6528703477817479 -0.1638630186623401 -0.9126205508265056
atom 0.0000000000000000 52.5999999999999943 0.0000000000000000 Ar
    velocity 1.2377017850903771 -0.4879153473731074 -0.2909033198340761
atom 5.2600000000000007 52.5999999999999943 0.0000000000000000 Ar
    velocity 0.5530368024984049 -0.2257555563640278 -0.2312801795803139
atom 10.5200000000000014 52.5999999999999943 0.0000000000000000 Ar
    velocity -0.8047129615927854 -1.1147751910186343 0.8444948843616570
atom 15.7799999999999994 52.5999999999999943 0.0000000000000000 Ar
    velocity -0.3825197983241967 1.8690495022947846 -0.0050847366563170
atom 21.0400000000000027 52.5999999999999943 0.0000000000000000 Ar
    velocity 0.7855110241043876 1.2571287523615566 0.5386125823530272
atom 26.2999999999999972 52.5999999999999943 0.0000000000000000 Ar
    velocity -0.1749904841629086 -0.2211148837587280 0.1662460353111474
atom 31.5599999999999987 52.5999999999999943 0.0000000000000000 Ar
    velocity -0.1374155894708825 0.6318089916407923 -0.4082689977163884
atom 36.8199999999999932 52.5999999999999943 0.0000000000000000 Ar
    velocity -0.5961699566943303 -0.6012187998858788 0.7028751813784624
atom 42.0800000000000054 52.5999999999999943 0.0000000000000000 Ar
    velocity -1.1063381591657109 -0.5336804927635551 -0.7114162322522432
atom 47.3399999999999963 52.5999999999999943 0.0000000000000000 Ar
    velocity 1.4141466612958258 -0.4093961790745739 -0.2793971241164256
atom 52.5999999999999943 52.5999999999999943 0.0000000000000000 Ar
    velocity -0.2702009327608708 -0.6189778351557925 0.1571909506565136
atom 57.8599999999999923 52.5999999999999943 0.0000000000000000 Ar
    velocity -0.2492528412155551 0.1206049851359037 -0.4211897133058735
atom 0.0000000000000000 57.8599999999999923 0.0000000000000000 Ar
    velocity -0.2643516759782953 -0.7683909617334266 0.6141081105928262
atom 5.2600000000000007 57.8599999999999923 0.0000000000000000 Ar
    velocity 0.1848605102640377 0.7610707945434491 -0.5394769570680091
atom 10.5200000000000014 57.8599999999999923 0.0000000000000000 Ar
    velocity 0.2302247809406801 -0.2093665726814250 0.8124403443126047
atom 15.7799999999999994 57.8599999999999923 0.0000000000000000 Ar
    velocity -0.6752387561341396 -0.5311804913887593 -0.7798504524116209
atom 21.0400000000000027 57.8599999999999923 0.0000000000000000 Ar
    velocity -0.4307534624655471 -0.3053267186361519 0.6468486102042176
atom 26.2999999999999972 57.8599999999999923 0.0000000000000000 Ar
    velocity -1.3568527085809643 -0.3860949269301029 -0.3666202920891036
atom 31.5599999999999987 57.8599999999999923 0.0000000000000000 Ar
    velocity -0.1439912679205160 -0.9953361705044966 -0.1656921346193278
atom 36.8199999999999932 57.8599999999999923 0.0000000000000000 Ar
    velocity -0.9907076866884689 0.3135431709992333 0.2328223030083589
atom 42.0800000000000054 57.8599999999999923 0.0000000000000000 Ar
    velocity -0.5593074549287639 2.6420805771292963 0.6252730634065560
atom 47.3399999999999963 57.8599999999999923 0.0000000000000000 Ar
    velocity -0.3676089735250767 0.3087673643447881 -0.7989125307954867
atom 52.5999999999999943 57.8599999999999923 0.0000000000000000 Ar
    velocity 0.4198169386235618 0.7189953559783810 0.2775830318695272
atom 57.8599999999999923 57.8599999999999923 0.0000000000000000 Ar
    velocity 0.6654777769820996 1.8134223148335076 -0.3436558980391354
atom 0.0000000000000000 0.0000000000000000 5.2600000000000007 Ar
    velocity -0.5720035251528676 -0.0643834803140628 -1.5147654635716539
atom 5.2600000000000007 0.0000000000000000 5.2600000000000007 Ar
    velocity -0.6065130331085250 -0.1397283891681090 0.8951531084612444
atom 10.5200000000000014 0.0000000000000000 5.2600000000000007 Ar
    velocity 0.7977110278386129 0.3080235662095991 -1.8848616762185226
atom 15.7799999999999994 0.0000000000000000 5.2600000000000007 Ar
    velocity 1.4797115349454442 1.4440506794585561 -1.1773869195367728
atom 21.0400000000000027 0.0000000000000000 5.2600000000000007 Ar
    velocity 0.3572620916268406 -0.8084243717993156 -0.4893490280313917
atom 26.2999999999999972 0.0000000000000000 5.2600000000000007 Ar
    velocity -0.8655375593982684 -0.3796525178137640 0.2466031624899031
atom 31.5599999999999987 0.0000000000000000 5.2600000000000007 Ar
    velocity 0.7683840903211966 -0.7478353304025872 -1.0196778876727859
atom 36.8199999999999932 0.0000000000000000 5.2600000000000007 Ar
    velocity -1.5756619450320759 -0.9266243693008868 -1.1293330966316031
atom 42.0800000000000054 0.0000000000000000 5.2600000000000007 Ar
    velocity 1.2118287615602759 -0.6076908572410447 0.5137106933306738
atom 47.3399999999999963 0.0000000000000000 5.2600000000000007 Ar
    velocity -0.0615720788333686 -0.8935672046380374 -0.1428196449728556
atom 52.5999999999999943 0.0000000000000000 5.2600000000000007 Ar
    velocity -0.6567541733178738 0.2990651983541182 0.2085384895693124
atom 57.8599999999999923 0.0000000000000000 5.2600000000000007 Ar
    velocity -0.2551227958181704 -0.9391986948829067 -1.0324559995248930
atom 0.0000000000000000 5.2600000000000007 5.2600000000000007 Ar
    velocity 0.0491109256216187 -0.6057477958529550 -0.0616988662456746
atom 5.2600000000000007 5.2600000000000007 5.2600000000000007 Ar
    velocity -0.1556375160022211 -1.6273796609784426 -0.7343079972553219
atom 10.5200000000000014 5.2600000000000007 5.2600000000000007 Ar
    velocity 0.6218795648488155 -0.9503757487352843 0.8624499992616199
atom 15.7799999999999994 5.2600000000000007 5.2600000000000007 Ar
    velocity 0.1118508446125809 0.8028881653533358 0.2303903322441835
atom 21.0400000000000027 5.2600000000000007 5.2600000000000007 Ar
    velocity 1.5555715582402103 -0.3446712387687811 0.2466027347881611
atom 26.2999999999999972 5.2600000000000007 5.2600000000000007 Ar
    velocity 1.0116095105543124 1.3543104314994792 -0.6483872782554700
atom 31.5599999999999987 5.2600000000000007 5.2600000000000007 Ar
    velocity -1.7060213324012936 -0.9233041345201294 -0.0152198501802001
atom 36.8199999999999932 5.2600000000000007 5.2600000000000007 Ar
    velocity 0.8982761421640051 0.3962731502284304 1.4553550552909063
atom 42.0800000000000054 5.2600000000000007 5.2600000000000007 Ar
    velocity -0.0317320786680014 -0.2868114669660995 0.0637468366479565
atom 47.3399999999999963 5.2600000000000007 5.2600000000000007 Ar
    velocity -0.3841549874445762 -0.0455056862874357 0.0408297770761434
atom 52.5999999999999943 5.2600000000000007 5.2600000000000007 Ar
    velocity -0.4221717467597670 -0.2824984100114269 1.0266336851979969
atom 57.8599999999999923 5.2600000000000007 5.2600000000000007 Ar
    velocity -1.1533784162006422 0.3573303546438641 0.5097929181947668
atom 0.0000000000000000 10.5200000000000014 5.2600000000000007 Ar
    velocity -1.0809114499446779 -0.7265780081826626 0.6147767819149386
atom 5.2600000000000007 10.5200000000000014 5.2600000000000007 Ar
    velocity 1.1243436286555977 -1.4253767666497783 0.3376917654007244
atom 10.5200000000000014 10.5200000000000014 5.2600000000000007 Ar
    velocity 0.3815443716533426 -1.5117505947704779 0.3951866930084199
atom 15.7799999999999994 10.5200000000000014 5.2600000000000007 Ar
    velocity 0.5211916129689493 0.0009481057674325 1.1655755349153833
atom 21.0400000000000027 10.5200000000000014 5.2600000000000007 Ar
    velocity -0.3979868916446471 -0.9634841427946130 1.4817970483572103
atom 26.2999999999999972 10.5200000000000014 5.2600000000000007 Ar
    velocity -0.7538846323054402 0.7505594297427256 0.8209408890707339
atom 31.5599999999999987 10.5200000000000014 5.2600000000000007 Ar
    velocity 0.7499959108928164 -0.1289297088161025 -0.0384784820705095
atom 36.8199999999999932 10.5200000000000014 5.2600000000000007 Ar
    velocity 0.9140942388783601 0.3707598282003342 -0.6670803383593796
atom 42.0800000000000054 10.5200000000000014 5.2600000000000007 Ar
    velocity -0.2060327681201553 0.6115391158355369 0.1631567008622743
atom 47.3399999999999963 10.5200000000000014 5.2600000000000007 Ar
    velocity 0.5093170032927473 1.0220782491374647 -0.5957142284019805
atom 52.5999999999999943 10.5200000000000014 5.2600000000000007 Ar
    velocity -0.0472628676962523 1.1342591326265250 -0.1271048747269591
atom 57.8599999999999923 10.5200000000000014 5.2600000000000007 Ar
    velocity 0.4529367853827631 -1.0044685287007573 -1.1865046481204298
atom 0.0000000000000000 15.7799999999999994 5.2600000000000007 Ar
    velocity 1.0552243016187881 1.0812832639487207 -0.3593589852496112
atom 5.2600000000000007 15.7799999999999994 5.2600000000000007 Ar
    velocity 1.4595608918182212 0.8356465347526983 0.0631838823991499
atom 10.5200000000000014 15.7799999999999994 5.2600000000000007 Ar
    velocity -0.6611029967257626 0.0752388029313534 -1.3132260260585633
atom 15.7799999999999994 15.7799999999999994 5.2600000000000007 Ar
    velocity 0.4640958180457709 0.5113083874416837 -0.2898486463075481
atom 21.0400000000000027 15.7799999999999994 5.2600000000000007 Ar
    velocity 0.8934666588757763 0.1427224286312750 -0.1241306677342549
atom 26.2999999999999972 15.7799999999999994 5.2600000000000007 Ar
    velocity 1.0397871473438913 2.0901774242586351 0.4101514709864728
atom 31.5599999999999987 15.7799999999999994 5.2600000000000007 Ar
    velocity -0.4084794385213899 0.5551135177501919 0.8329209463038563
atom 36.8199999999999932 15.7799999999999994 5.2600000000000007 Ar
    velocity -0.5341897219054729 0.8806987426372563 1.3469815185729090
atom 42.0800000000000054 15.7799999999999994 5.2600000000000007 Ar
    velocity -0.1313893322273565 -0.0471927429137051 0.9590301925951104
atom 47.3399999999999963 15.7799999999999994 5.2600000000000007 Ar
    velocity -0.0011132961959727 -0.2163282371720697 1.9870703225680790
atom 52.5999999999999943 15.7799999999999994 5.2600000000000007 Ar
    velocity -0.2468373684803244 -0.4605274775907923 -1.2321002547733306
atom 57.8599999999999923 15.7799999999999994 5.2600000000000007 Ar
    velocity -0.4965401324758294 -0.7827587514823837 1.4880180834845889
atom 0.0000000000000000 21.0400000000000027 5.2600000000000007 Ar
    velocity 0.7046318588459679 0.1648496751311369 0.1914088116251759
atom 5.2600000000000007 21.0400000000000027 5.2600000000000007 Ar
    velocity 1.3301565976723106 0.5766612604978640 0.7556180096165325
atom 10.5200000000000014 21.0400000000000027 5.2600000000000007 Ar
    velocity -0.1070950440227862 -0.5665454997823361 0.8816010550084752
atom 15.7799999999999994 21.0400000000000027 5.2600000000000007 Ar
    velocity 0.0612908592705448 0.4743033780967370 -1.0071258284253048
atom 21.0400000000000027 21.0400000000000027 5.2600000000000007 Ar
    velocity -0.3493838288126412 0.0933864106274230 -0.7735197026351334
atom 26.2999999999999972 21.0400000000000027 5.2600000000000007 Ar
    velocity 0.9581637564443153 0.0791175227179764 0.0247133037957325
atom 31.5599999999999987 21.0400000000000027 5.2600000000000007 Ar
    velocity -0.5389691224308772 -0.6277851354655581 -0.4815646283739879
atom 36.8199999999999932 21.0400000000000027 5.2600000000000007 Ar
    velocity 0.9799227036783325 -0.2187343595661451 0.1177943387624801
atom 42.0800000000000054 21.0400000000000027 5.2600000000000007 Ar
    velocity -0.1801686232256746 -0.2423813014321357 -0.8507751980656425
atom 47.3399999999999963 21.0400000000000027 5.2600000000000007 Ar
    velocity 0.9503269226114092 0.3494608811088981 -0.2825256706502959
atom 52.5999999999999943 21.0400000000000027 5.2600000000000007 Ar
    velocity 0.7700363597460662 1.0367550382049719 -0.8787765677164112
atom 57.8599999999999923 21.0400000000000027 5.2600000000000007 Ar
    velocity 2.5458195066756995 0.6961715870526839 0.2237936920272150
atom 0.0000000000000000 26.2999999999999972 5.2600000000000007 Ar
    velocity -0.9261099477263021 -0.6043237296259650 -0.3452247249320138
atom 5.2600000000000007 26.2999999999999972 5.2600000000000007 Ar
    velocity -0.4033618695293174 0.4457533143997213 0.7396036197912276
atom 10.5200000000000014 26.2999999999999972 5.2600000000000007 Ar
    velocity 0.7363669543516546 0.6309825193709226 0.3720725560032165
atom 15.7799999999999994 26.2999999999999972 5.2600000000000007 Ar
    velocity -0.2829920766521139 -0.0219485699747560 -0.3659112375426803
atom 21.0400000000000027 26.2999999999999972 5.2600000000000007 Ar
    velocity 0.7517472021092757 -0.0398947051297655 -0.9114609233805191
atom 26.2999999999999972 26.2999999999999972 5.2600000000000007 Ar
    velocity -0.2945564277519178 -0.4523010766278154 -0.3147697175540408
atom 31.5599999999999987 26.2999999999999972 5.2600000000000007 Ar
    velocity -0.2250041339703338 0.7550366892614502 1.1084154278239766
atom 36.8199999999999932 26.2999999999999972 5.2600000000000007 Ar
    velocity 0.4418731358229275 -0.9420848320569385 0.5738380271182077
atom 42.0800000000000054 26.2999999999999972 5.2600000000000007 Ar
    velocity -0.6593652774428462 -0.2040043762308203 -0.2132918212257642
atom 47.3399999999999963 26.2999999999999972 5.2600000000000007 Ar