#=======================================================
# FHI-aims file: argon_108_30k.in
# Created using the Atomic Simulation Environment (ASE)
# Tue Jun 15 19:24:51 2021
#=======================================================
lattice_vector 15.7799999999999994 0.0000000000000000 0.0000000000000000 
lattice_vector 0.0000000000000000 15.7799999999999994 0.0000000000000000 
lattice_vector 0.0000000000000000 0.0000000000000000 15.7799999999999994 
atom 0.0000000000000000 0.0000000000000000 0.0000000000000000 Ar
    velocity -0.8434232328933989 -0.9513567677380701 0.7935161712418755
atom 5.2600000000000007 0.0000000000000000 0.0000000000000000 Ar
    velocity 0.0556699101493728 -0.4337284358833293 -0.3889357726154813
atom 10.5200000000000014 0.0000000000000000 0.0000000000000000 Ar
    velocity 0.4131586959696949 1.7052759131770814 0.2063620912347752
atom 0.0000000000000000 5.2600000000000007 0.0000000000000000 Ar
    velocity -0.0659516360845484 -0.5365046647304019 0.2123207972927169
atom 5.2600000000000007 5.2600000000000007 0.0000000000000000 Ar
    velocity 0.9500073611279646 1.5546414854790416 0.1113081503233535
atom 10.5200000000000014 5.2600000000000007 0.0000000000000000 Ar
    velocity 0.8309344835866378 -0.1565507381612189 -0.1471949951669731
atom 0.0000000000000000 10.5200000000000014 0.0000000000000000 Ar
    velocity 0.3227579042958590 -0.1758544251771168 0.4973554186733709
atom 5.2600000000000007 10.5200000000000014 0.0000000000000000 Ar
    velocity 1.0083074957094253 0.8534347562242061 -0.5933053324074272
atom 10.5200000000000014 10.5200000000000014 0.0000000000000000 Ar
    velocity -0.1244218279500039 -0.4180577364898911 0.8427529058032701
atom 0.0000000000000000 0.0000000000000000 5.2600000000000007 Ar
    velocity -0.5124156845934131 0.1040788736326100 0.7760577561252723
atom 5.2600000000000007 0.0000000000000000 5.2600000000000007 Ar
    velocity -0.3966885730851338 -0.7716853570117652 -0.5227462683835256
atom 10.5200000000000014 0.0000000000000000 5.2600000000000007 Ar
    velocity 0.3621373210520351 -0.6274644816538988 -0.5237300806619724
atom 0.0000000000000000 5.2600000000000007 5.2600000000000007 Ar
    velocity 1.2823374060254835 0.0763963708774934 0.0293977545237153
atom 5.2600000000000007 5.2600000000000007 5.2600000000000007 Ar
    velocity 0.1846551151037015 0.1151539290044958 -1.8997667782389771
atom 10.5200000000000014 5.2600000000000007 5.2600000000000007 Ar
    velocity -0.3178053503562283 -0.4928425452994551 -0.0294784458241876
atom 0.0000000000000000 10.5200000000000014 5.2600000000000007 Ar
    velocity 0.3791602168343551 -0.5465227464526662 -0.8006826241898911
atom 5.2600000000000007 10.5200000000000014 5.2600000000000007 Ar
    velocity -0.8662045787009823 -0.6930982572333257 -0.1062075407865013
atom 10.5200000000000014 10.5200000000000014 5.2600000000000007 Ar
    velocity 1.1280635145445590 -0.0413301922997852 -0.6969616304458991
atom 0.0000000000000000 0.0000000000000000 10.5200000000000014 Ar
    velocity 0.2611984428667620 0.5677643753562922 0.5370041884951058
atom 5.2600000000000007 0.0000000000000000 10.5200000000000014 Ar
    velocity 0.5951253935743200 -0.6339205640482555 -0.2449282987922249
atom 10.5200000000000014 0.0000000000000000 10.5200000000000014 Ar
    velocity -0.5188591993652074 0.6047502516207588 0.6911614146547665
atom 0.0000000000000000 5.2600000000000007 10.5200000000000014 Ar
    velocity -0.5703815969854082 -1.1885555800889174 0.3045037675744057
atom 5.2600000000000007 5.2600000000000007 10.5200000000000014 Ar
    velocity 0.0891198817366441 0.3327945472711166 -0.3944496248291221
atom 10.5200000000000014 5.2600000000000007 10.5200000000000014 Ar
    velocity -0.0272187083389649 0.3209313380017769 0.4674457961293351
atom 0.0000000000000000 10.5200000000000014 10.5200000000000014 Ar
    velocity -0.2786128043672682 1.2420211506412828 -0.2947622334093022
atom 5.2600000000000007 10.5200000000000014 10.5200000000000014 Ar
    velocity 0.8313893380389389 -0.0861841163260548 -0.6727174291962301
atom 10.5200000000000014 10.5200000000000014 10.5200000000000014 Ar
    velocity 0.8862540265235420 -0.3401056918882598 -0.3782787686949707
atom 0.0000000000000000 2.6300000000000003 2.6300000000000003 Ar
    velocity 0.2399130584222330 -0.4325210219709020 0.6160730334588811
atom 5.2600000000000007 2.6300000000000003 2.6300000000000003 Ar
    velocity 0.0597812733702868 0.5403991727120744 -0.3535103613483875
atom 10.5200000000000014 2.6300000000000003 2.6300000000000003 Ar
    velocity -0.1066495480258102 -0.4480160543552774 -0.7673336131062446
atom 0.0000000000000000 7.8899999999999997 2.6300000000000003 Ar
    velocity 0.0829152643320167 0.4878155182658942 1.0734304768137850
atom 5.2600000000000007 7.8899999999999997 2.6300000000000003 Ar
    velocity -0.0788640665677441 -0.0962043819703017 -0.6344864219014975
atom 10.5200000000000014 7.8899999999999997 2.6300000000000003 Ar
    velocity 0.7979063113685316 -1.0043606755572110 0.0614554219009912
atom 0.0000000000000000 13.1499999999999986 2.6300000000000003 Ar
    velocity 0.3696713198653568 1.5476869278911467 -0.7144268761049194
atom 5.2600000000000007 13.1499999999999986 2.6300000000000003 Ar
    velocity -0.9490863207438127 0.6204212803163676 -0.6491776667401593
atom 10.5200000000000014 13.1499999999999986 2.6300000000000003 Ar
    velocity -0.7506602328176253 0.2217782818524672 0.0885561067587032
atom 0.0000000000000000 2.6300000000000003 7.8899999999999997 Ar
    velocity 0.3705895043513259 -0.8718787945077138 0.3598586736310402
atom 5.2600000000000007 2.6300000000000003 7.8899999999999997 Ar
    velocity 0.0120574702163779 -0.0155559092669758 0.2800310704161331
atom 10.5200000000000014 2.6300000000000003 7.8899999999999997 Ar
    velocity -1.2171396434890447 0.1698625340465113 0.9638560372931358
atom 0.0000000000000000 7.8899999999999997 7.8899999999999997 Ar
    velocity -0.6670427139289060 -0.0413911506392694 0.1183193334732911
atom 5.2600000000000007 7.8899999999999997 7.8899999999999997 Ar
    velocity -0.7503860873438855 1.2254562621684013 -0.2237534265289672
atom 10.5200000000000014 7.8899999999999997 7.8899999999999997 Ar
    velocity 0.9387484223603507 0.4204152382292065 0.2885983582182026
atom 0.0000000000000000 13.1499999999999986 7.8899999999999997 Ar
    velocity 1.2590856513380306 -1.5102384679912573 -0.3086998131632857
atom 5.2600000000000007 13.1499999999999986 7.8899999999999997 Ar
    velocity -0.7614001951715699 1.1678237132635230 0.6883602005908298
atom 10.5200000000000014 13.1499999999999986 7.8899999999999997 Ar
    velocity 0.3458953646261447 -1.0467375323552932 0.3129965996909141
atom 0.0000000000000000 2.6300000000000003 13.1499999999999986 Ar
    velocity 0.8255742658484961 -0.4002579813773613 -0.4193228159269046
atom 5.2600000000000007 2.6300000000000003 13.1499999999999986 Ar
    velocity -1.0300235028236602 -1.3885155755291219 -1.1537442075564845
atom 10.5200000000000014 2.6300000000000003 13.1499999999999986 Ar
    velocity 0.2587725079305945 2.0501083093890631 -0.4685570458925332
atom 0.0000000000000000 7.8899999999999997 13.1499999999999986 Ar
    velocity 0.2188472304173694 -0.4178322157470818 0.9952031633785603
atom 5.2600000000000007 7.8899999999999997 13.1499999999999986 Ar
    velocity -0.7561153524428571 -0.5609101431144440 0.5809162350495178
atom 10.5200000000000014 7.8899999999999997 13.1499999999999986 Ar
    velocity 0.0932050049118775 -0.9049201648983056 -1.1296523874061806
atom 0.0000000000000000 13.1499999999999986 13.1499999999999986 Ar
    velocity 0.0445863222018659 -0.7240007200153455 0.5827474358265390
atom 5.2600000000000007 13.1499999999999986 13.1499999999999986 Ar
    velocity -0.1671142693592807 0.9101252402805061 0.4710296526373081
atom 10.5200000000000014 13.1499999999999986 13.1499999999999986 Ar
    velocity -0.4449122195396070 0.0090275378236537 -0.2296658701413591
atom 2.6300000000000003 0.0000000000000000 2.6300000000000003 Ar
    velocity -0.2141930110410230 -0.3417601555185781 0.1300253136165675
atom 7.8899999999999997 0.0000000000000000 2.6300000000000003 Ar
    velocity 0.7377825926568825 -1.2762730898626500 -0.5787294513067718
atom 13.1499999999999986 0.0000000000000000 2.6300000000000003 Ar
    velocity 1.1437498836028923 -0.0292208694444391 0.3393158702615249
atom 2.6300000000000003 5.2600000000000007 2.6300000000000003 Ar
    velocity 0.4899398876508846 -1.0845633793261800 0.0639484612489344
atom 7.8899999999999997 5.2600000000000007 2.6300000000000003 Ar
    velocity -0.2649940041690742 -2.3112397257030843 -0.2299165278272252
atom 13.1499999999999986 5.2600000000000007 2.6300000000000003 Ar
    velocity -1.3719271377056204 -0.8877471848831883 -0.7551658769760791
atom 2.6300000000000003 10.5200000000000014 2.6300000000000003 Ar
    velocity -0.3087951483075263 -2.0762678949437099 0.3420507926925621
atom 7.8899999999999997 10.5200000000000014 2.6300000000000003 Ar
    velocity 0.1729894355281575 -0.6089429561341387 -0.4328742779061373
atom 13.1499999999999986 10.5200000000000014 2.6300000000000003 Ar
    velocity -1.0650296389549085 0.2013005962270913 1.8405306816352367
atom 2.6300000000000003 0.0000000000000000 7.8899999999999997 Ar
    velocity 0.4673501283792659 -0.0550845274366031 0.4695618718778661
atom 7.8899999999999997 0.0000000000000000 7.8899999999999997 Ar
    velocity -1.8447185091909906 0.6915866615508574 0.9390854305447526
atom 13.1499999999999986 0.0000000000000000 7.8899999999999997 Ar
    velocity -1.0405451507962640 2.0001501213823238 0.1708475846004170
atom 2.6300000000000003 5.2600000000000007 7.8899999999999997 Ar
    velocity -0.1230610554334850 0.5172370928184495 0.4964930035155611
atom 7.8899999999999997 5.2600000000000007 7.8899999999999997 Ar
    velocity 0.6200949265664030 1.9290259618626344 0.2841458239356977
atom 13.1499999999999986 5.2600000000000007 7.8899999999999997 Ar
    velocity -0.0393304135962868 0.5816124879397506 1.9726079478893963
atom 2.6300000000000003 10.5200000000000014 7.8899999999999997 Ar
    velocity 0.6104365891686262 -0.0261224815703732 -1.9649368121223176
atom 7.8899999999999997 10.5200000000000014 7.8899999999999997 Ar
    velocity 0.7234544911271455 -0.4212869431108940 1.0832721116352666
atom 13.1499999999999986 10.5200000000000014 7.8899999999999997 Ar
    velocity -0.8506621036618452 -1.2527164863921394 0.0080903186069956
atom 2.6300000000000003 0.0000000000000000 13.1499999999999986 Ar
    velocity -0.2596933669182316 2.0060629124391642 -0.1982897221070379
atom 7.8899999999999997 0.0000000000000000 13.1499999999999986 Ar
    velocity 1.9831536376030621 1.7820741771653579 -0.5983255023501043
atom 13.1499999999999986 0.0000000000000000 13.1499999999999986 Ar
    velocity -0.5298632089240850 2.5729882534500277 1.1892030913432292
atom 2.6300000000000003 5.2600000000000007 13.1499999999999986 Ar
    velocity -0.0603845111996287 -2.7543940921853451 -0.4819602520726387
atom 7.8899999999999997 5.2600000000000007 13.1499999999999986 Ar
    velocity -0.7861899805751196 1.1440359913836922 0.4385574726109979
atom 13.1499999999999986 5.2600000000000007 13.1499999999999986 Ar
    velocity -0.3815222234816706 0.2323676469567677 -0.6784069726163727
atom 2.6300000000000003 10.5200000000000014 13.1499999999999986 Ar
    velocity 0.1915345858154971 -1.7905700229361476 0.0383185382987410
atom 7.8899999999999997 10.5200000000000014 13.1499999999999986 Ar
    velocity -1.3921532159189354 -0.3331950579228666 -0.3946028937786604
atom 13.1499999999999986 10.5200000000000014 13.1499999999999986 Ar
    velocity -0.7093195980628153 -0.5692191997537394 0.0431227852748762
atom 2.6300000000000003 2.6300000000000003 0.0000000000000000 Ar
    velocity -0.9411420848781640 1.3700890513785311 -0.9953392933947879
atom 7.8899999999999997 2.6300000000000003 0.0000000000000000 Ar
    velocity -0.5620061877886158 0.9546121883492988 -0.2395301413625183
atom 13.1499999999999986 2.6300000000000003 0.0000000000000000 Ar
    velocity 1.5526216546063387 -0.5391365185867785 0.7495326006755243
atom 2.6300000000000003 7.8899999999999997 0.0000000000000000 Ar
    velocity 1.1611471235926643 0.1391410647011260 0.8644227096124232
atom 7.8899999999999997 7.8899999999999997 0.0000000000000000 Ar
    velocity 0.3144223759652963 0.7445258680742043 0.7067825823267034
atom 13.1499999999999986 7.8899999999999997 0.0000000000000000 Ar
    velocity 1.1398987141900514 0.8732030017987811 0.3981087980696586
atom 2.6300000000000003 13.1499999999999986 0.0000000000000000 Ar
    velocity 0.0714785895787806 -0.7481796376597118 -0.3227931875216955
atom 7.8899999999999997 13.1499999999999986 0.0000000000000000 Ar
    velocity -0.7472990054020693 -1.0979138195923015 0.5443226104484084
atom 13.1499999999999986 13.1499999999999986 0.0000000000000000 Ar
    velocity 0.6806552906813281 0.3881192223493921 1.0031109572174677
atom 2.6300000000000003 2.6300000000000003 5.2600000000000007 Ar
    velocity -1.8919400592899427 0.3658557927498169 0.0720729669420292
atom 7.8899999999999997 2.6300000000000003 5.2600000000000007 Ar
    velocity -0.1292072538187936 -1.5221015226744277 0.5166245912310014
atom 13.1499999999999986 2.6300000000000003 5.2600000000000007 Ar
    velocity 1.9851753968749362 0.4690095176537274 -1.6470106852944033
atom 2.6300000000000003 7.8899999999999997 5.2600000000000007 Ar
    velocity 1.4714134359221771 1.2391614540314126 -0.1819684667758548
atom 7.8899999999999997 7.8899999999999997 5.2600000000000007 Ar
    velocity 0.9484947488590535 -0.3037635855550162 0.7224802233610303
atom 13.1499999999999986 7.8899999999999997 5.2600000000000007 Ar
    velocity -0.0640690013129825 0.0004491233580619 -1.3911487925949686
atom 2.6300000000000003 13.1499999999999986 5.2600000000000007 Ar
    velocity -0.1506993428603729 1.4549325279366574 -0.7911293015072220
atom 7.8899999999999997 13.1499999999999986 5.2600000000000007 Ar
    velocity -0.4504007790952876 -0.0322437595359268 -0.1834560150006537
atom 13.1499999999999986 13.1499999999999986 5.2600000000000007 Ar
    velocity -0.7344648697516700 0.3338067147929725 -2.0463557064913838
atom 2.6300000000000003 2.6300000000000003 10.5200000000000014 Ar
    velocity -0.1616019742125713 -0.1204165141812189 0.7849817929384123
atom 7.8899999999999997 2.6300000000000003 10.5200000000000014 Ar
    velocity 0.1085411646457248 -0.0568712117883540 0.2238285714671990
atom 13.1499999999999986 2.6300000000000003 10.5200000000000014 Ar
    velocity 0.5107897157064990 -0.8017232337128268 1.2274393554932115
atom 2.6300000000000003 7.8899999999999997 10.5200000000000014 Ar
    velocity -0.4119493843598170 0.0081001486456816 -0.6002518995115064
atom 7.8899999999999997 7.8899999999999997 10.5200000000000014 Ar
    velocity -1.1430195011292743 -1.7100798773651316 -1.1403187490297320
atom 13.1499999999999986 7.8899999999999997 10.5200000000000014 Ar
    velocity -0.6664491337667006 1.0689686678034143 -0.0199446195648680
atom 2.6300000000000003 13.1499999999999986 10.5200000000000014 Ar
    velocity -0.2481622791575606 1.0754394855989919 0.4755618066289586
atom 7.8899999999999997 13.1499999999999986 10.5200000000000014 Ar
    velocity 0.7922114836911547 -0.4318626188401622 -0.7712488591344629
atom 13.1499999999999986 13.1499999999999986 10.5200000000000014 Ar
    velocity -1.6289908513772859 0.1479807164710489 0.3011156584965626
