#=======================================================
# FHI-aims file: argon_27436_30k.in
# Created using the Atomic Simulation Environment (ASE)
# Tue Jun 15 19:25:25 2021
#=======================================================
lattice_vector 99.9399999999999977 0.0000000000000000 0.0000000000000000 
lattice_vector 0.0000000000000000 99.9399999999999977 0.0000000000000000 
lattice_vector 0.0000000000000000 0.0000000000000000 99.9399999999999977 
atom 0.0000000000000000 0.0000000000000000 0.0000000000000000 Ar
    velocity 0.9406073895135496 -0.4948249006416645 -0.9772315119854426
atom 5.2600000000000007 0.0000000000000000 0.0000000000000000 Ar
    velocity -0.3952197866909339 0.1779250699206865 -1.2562715060953515
atom 10.5200000000000014 0.0000000000000000 0.0000000000000000 Ar
    velocity -0.2148756695329259 0.0818267586324332 -0.2189362561625824
atom 15.7800000000000011 0.0000000000000000 0.0000000000000000 Ar
    velocity 0.3917394235711548 -0.7931005083126063 -0.9767439220518666
atom 21.0400000000000027 0.0000000000000000 0.0000000000000000 Ar
    velocity -0.2850093420086986 0.6885499280016524 -0.5212084515543922
atom 26.2999999999999972 0.0000000000000000 0.0000000000000000 Ar
    velocity 0.3862352800836139 -1.2567240826835679 -0.1313711676740396
atom 31.5600000000000023 0.0000000000000000 0.0000000000000000 Ar
    velocity -2.3572154583027558 1.3177696817067714 -0.7092417954528516
atom 36.8200000000000003 0.0000000000000000 0.0000000000000000 Ar
    velocity 0.0331281877556668 0.7676189099031770 -0.9013443292703864
atom 42.0800000000000054 0.0000000000000000 0.0000000000000000 Ar
    velocity -0.4622007066071068 -0.3778173192907816 -0.4383674598982822
atom 47.3400000000000034 0.0000000000000000 0.0000000000000000 Ar
    velocity 1.2734030997091081 -0.5437092331943318 -0.1164190035172703
atom 52.5999999999999943 0.0000000000000000 0.0000000000000000 Ar
    velocity 0.4833745272148720 -1.5984793958862566 -0.1745476258227896
atom 57.8599999999999994 0.0000000000000000 0.0000000000000000 Ar
    velocity -0.8641870394539420 0.5867922440577015 0.9367152999085965
atom 63.1200000000000045 0.0000000000000000 0.0000000000000000 Ar
    velocity 1.4661740110948633 0.3928626940695597 0.0708099299155895
atom 68.3799999999999955 0.0000000000000000 0.0000000000000000 Ar
    velocity -0.3211262128971355 -0.8708426265521271 2.1891995892478309
atom 73.6400000000000006 0.0000000000000000 0.0000000000000000 Ar
    velocity -0.3458185360712586 -1.2752835193863159 0.0760649442347771
atom 78.9000000000000057 0.0000000000000000 0.0000000000000000 Ar
    velocity -0.9148597030297818 0.3564542440966213 -0.6651876451932426
atom 84.1600000000000108 0.0000000000000000 0.0000000000000000 Ar
    velocity -1.5684823261232153 0.1993512417006706 -0.3718777546769781
atom 89.4200000000000017 0.0000000000000000 0.0000000000000000 Ar
    velocity -0.3489961894915767 -0.3576004593597356 -0.0403706689079982
atom 94.6800000000000068 0.0000000000000000 0.0000000000000000 Ar
    velocity -1.2135937861629336 1.0719658609884253 -0.2506105747787033
atom 0.0000000000000000 5.2600000000000007 0.0000000000000000 Ar
    velocity -0.8624179400465023 1.1245160992685117 1.0544271123187146
atom 5.2600000000000007 5.2600000000000007 0.0000000000000000 Ar
    velocity 0.6180457341398933 -0.1652572252278668 -0.1123763950099858
atom 10.5200000000000014 5.2600000000000007 0.0000000000000000 Ar
    velocity -0.3734581358149510 -0.7521560511068150 0.8300922164346942
atom 15.7800000000000011 5.2600000000000007 0.0000000000000000 Ar
    velocity 0.1354375172776468 0.5099152401657719 -0.9246277348939809
atom 21.0400000000000027 5.2600000000000007 0.0000000000000000 Ar
    velocity -0.5614917341060385 -0.0964169653205395 -0.6150312161541375
atom 26.2999999999999972 5.2600000000000007 0.0000000000000000 Ar
    velocity -0.5637742867334351 0.1342116231560178 -0.6462165191659150
atom 31.5600000000000023 5.2600000000000007 0.0000000000000000 Ar
    velocity -0.9867197654693017 -0.1074062648221850 -0.1411515792937214
atom 36.8200000000000003 5.2600000000000007 0.0000000000000000 Ar
    velocity -0.6941915280121657 0.2816189450665172 0.2971361209693305
atom 42.0800000000000054 5.2600000000000007 0.0000000000000000 Ar
    velocity 0.0409594528086895 -1.0814117940461199 -0.2924382916817614
atom 47.3400000000000034 5.2600000000000007 0.0000000000000000 Ar
    velocity -1.1978856082096430 -1.3390092806499729 0.1721671151451778
atom 52.5999999999999943 5.2600000000000007 0.0000000000000000 Ar
    velocity 0.4735777497132654 -0.3288156332171208 -0.4381989339905849
atom 57.8599999999999994 5.2600000000000007 0.0000000000000000 Ar
    velocity 0.7272175175020934 0.1878825235177407 -1.3705803906398886
atom 63.1200000000000045 5.2600000000000007 0.0000000000000000 Ar
    velocity 1.6321178752659879 0.1892566061694687 0.9067383317377447
atom 68.3799999999999955 5.2600000000000007 0.0000000000000000 Ar
    velocity -0.3026998496738840 0.3977955477358315 -0.8531683376924200
atom 73.6400000000000006 5.2600000000000007 0.0000000000000000 Ar
    velocity 0.4919570947157421 0.0857492828318538 0.2066287885501794
atom 78.9000000000000057 5.2600000000000007 0.0000000000000000 Ar
    velocity -0.1067945918073482 0.1713772375771069 0.9918655166558165
atom 84.1600000000000108 5.2600000000000007 0.0000000000000000 Ar
    velocity -1.4797183747130291 -0.0617902603226843 0.9085865873048521
atom 89.4200000000000017 5.2600000000000007 0.0000000000000000 Ar
    velocity -0.1660229458226173 0.2891678063734264 -1.0175799083260004
atom 94.6800000000000068 5.2600000000000007 0.0000000000000000 Ar
    velocity 0.0951956643183136 0.6823393005428049 0.7053762749862459
atom 0.0000000000000000 10.5200000000000014 0.0000000000000000 Ar
    velocity 0.5298847503996436 0.5307020841441908 0.1455926175574211
atom 5.2600000000000007 10.5200000000000014 0.0000000000000000 Ar
    velocity -0.4363146686622590 0.0975132227131805 -1.1050902630565451
atom 10.5200000000000014 10.5200000000000014 0.0000000000000000 Ar
    velocity -1.3074193781018846 0.3302367317769881 0.6512204487840005
atom 15.7800000000000011 10.5200000000000014 0.0000000000000000 Ar
    velocity 0.1858037937345265 -0.8402571081589436 0.2383790504028536
atom 21.0400000000000027 10.5200000000000014 0.0000000000000000 Ar
    velocity 0.3917639573625578 -1.1161154223641827 0.2359737050027469
atom 26.2999999999999972 10.5200000000000014 0.0000000000000000 Ar
    velocity -0.9208603340052177 -0.7879452294680689 -0.4552821453860112
atom 31.5600000000000023 10.5200000000000014 0.0000000000000000 Ar
    velocity -0.4432029751028254 1.2077451670654720 -0.5248976497484419
atom 36.8200000000000003 10.5200000000000014 0.0000000000000000 Ar
    velocity 0.4913253927482389 0.6217474703228068 -0.4475787523563903
atom 42.0800000000000054 10.5200000000000014 0.0000000000000000 Ar
    velocity -0.5560393082243659 0.5904442080338788 0.1120140991397433
atom 47.3400000000000034 10.5200000000000014 0.0000000000000000 Ar
    velocity 0.8893581708997761 -0.9913786130502058 0.1844678592817910
atom 52.5999999999999943 10.5200000000000014 0.0000000000000000 Ar
    velocity 0.7435961992223283 0.6506777779227354 -0.5495491010988577
atom 57.8599999999999994 10.5200000000000014 0.0000000000000000 Ar
    velocity 0.0828921830996889 1.4976353881978457 -0.1494409789933493
atom 63.1200000000000045 10.5200000000000014 0.0000000000000000 Ar
    velocity 0.9463352237600415 -0.4989311216669690 -0.6541656879386583
atom 68.3799999999999955 10.5200000000000014 0.0000000000000000 Ar
    velocity -0.6618703705324676 0.4103421014315966 0.6514175139243250
atom 73.6400000000000006 10.5200000000000014 0.0000000000000000 Ar
    velocity -0.9850208247900036 -0.1158532342014565 -0.1228902984979687
atom 78.9000000000000057 10.5200000000000014 0.0000000000000000 Ar
    velocity 0.3039152305278639 0.6024249456442922 0.2297390145695929
atom 84.1600000000000108 10.5200000000000014 0.0000000000000000 Ar
    velocity -1.0586148350501343 0.6141897251903544 -0.0381185602549770
atom 89.4200000000000017 10.5200000000000014 0.0000000000000000 Ar
    velocity -0.0934163231629734 0.8544224815402892 1.3896004067710483
atom 94.6800000000000068 10.5200000000000014 0.0000000000000000 Ar
    velocity -1.1191803799064450 0.9243319622797628 -1.0847325642799253
atom 0.0000000000000000 15.7800000000000011 0.0000000000000000 Ar
    velocity 0.5634382889080213 -0.3087424954769225 1.6272655273651950
atom 5.2600000000000007 15.7800000000000011 0.0000000000000000 Ar
    velocity 1.0305257982039717 -0.3406040240591061 0.6154238149714272
atom 10.5200000000000014 15.7800000000000011 0.0000000000000000 Ar
    velocity -0.0919397926694654 0.2645547270294592 -0.8434999521574459
atom 15.7800000000000011 15.7800000000000011 0.0000000000000000 Ar
    velocity -2.0118600045319313 -0.6634330198154481 -0.8724563635215756
atom 21.0400000000000027 15.7800000000000011 0.0000000000000000 Ar
    velocity 0.6381219995452396 -0.2114653000724925 -0.0095032483187032
atom 26.2999999999999972 15.7800000000000011 0.0000000000000000 Ar
    velocity -0.2833628574272208 0.0494972964572098 -0.1776908155759819
atom 31.5600000000000023 15.7800000000000011 0.0000000000000000 Ar
    velocity -0.8176005815226549 -0.7040084476459892 1.1330675932267029
atom 36.8200000000000003 15.7800000000000011 0.0000000000000000 Ar
    velocity -0.3062585665693498 -0.9791346428405570 -1.9538342385723535
atom 42.0800000000000054 15.7800000000000011 0.0000000000000000 Ar
    velocity 1.1479507409346492 0.2837484446162818 -0.6309255800675343
atom 47.3400000000000034 15.7800000000000011 0.0000000000000000 Ar
    velocity 0.0113430713023157 -0.3732761587136769 0.3450905501946021
atom 52.5999999999999943 15.7800000000000011 0.0000000000000000 Ar
    velocity -0.8321486674783874 0.3272193507361779 0.9410809881172336
atom 57.8599999999999994 15.7800000000000011 0.0000000000000000 Ar
    velocity 0.5348536380846642 0.1613927260681983 -0.3533295464152313
atom 63.1200000000000045 15.7800000000000011 0.0000000000000000 Ar
    velocity 1.6432680614699244 -3.1774502575558787 -0.8259567084580118
atom 68.3799999999999955 15.7800000000000011 0.0000000000000000 Ar
    velocity -0.0000498220756482 -0.0630942499858478 -0.2763845898265436
atom 73.6400000000000006 15.7800000000000011 0.0000000000000000 Ar
    velocity 0.6578578333288035 -0.7141888275332758 -0.0473370084852299
atom 78.9000000000000057 15.7800000000000011 0.0000000000000000 Ar
    velocity -0.1932646539887579 0.4225323323938167 -0.2999284494580141
atom 84.1600000000000108 15.7800000000000011 0.0000000000000000 Ar
    velocity 2.4345340573198566 -0.1185496423350844 0.2966945850037485
atom 89.4200000000000017 15.7800000000000011 0.0000000000000000 Ar
    velocity 0.2202939044987853 -0.0376172238563066 0.4947335529344264
atom 94.6800000000000068 15.7800000000000011 0.0000000000000000 Ar
    velocity 0.6817235749033015 -1.4876711810484087 0.8953801932576987
atom 0.0000000000000000 21.0400000000000027 0.0000000000000000 Ar
    velocity -0.8244648469481946 0.5942784904493736 -0.6648517372619409
atom 5.2600000000000007 21.0400000000000027 0.0000000000000000 Ar
    velocity 1.6477018318807364 -0.4353030473540904 0.1212900739932680
atom 10.5200000000000014 21.0400000000000027 0.0000000000000000 Ar
    velocity -0.5593784394386925 -1.3180659874642273 -0.5365580235084523
atom 15.7800000000000011 21.0400000000000027 0.0000000000000000 Ar
    velocity 0.0669638652627947 0.4533242115168194 -0.0006208778168128
atom 21.0400000000000027 21.0400000000000027 0.0000000000000000 Ar
    velocity -0.2995854510712161 -0.0408586652176225 -0.0159148454180091
atom 26.2999999999999972 21.0400000000000027 0.0000000000000000 Ar
    velocity -0.2649261740147483 1.5681447495718470 -0.2732665602186076
atom 31.5600000000000023 21.0400000000000027 0.0000000000000000 Ar
    velocity -0.2517581767585175 -0.1540478528726960 -0.2059639680100796
atom 36.8200000000000003 21.0400000000000027 0.0000000000000000 Ar
    velocity 1.2800873485588498 0.4568830397791998 1.2508050946445997
atom 42.0800000000000054 21.0400000000000027 0.0000000000000000 Ar
    velocity 1.4556363355507473 -0.0756160845518075 -0.8172814169257320
atom 47.3400000000000034 21.0400000000000027 0.0000000000000000 Ar
    velocity 1.8411707969966284 1.4650841030674240 0.4496876973383047
atom 52.5999999999999943 21.0400000000000027 0.0000000000000000 Ar
    velocity -0.6165011075505672 -0.1664334192252235 0.1522464656109115
atom 57.8599999999999994 21.0400000000000027 0.0000000000000000 Ar
    velocity 0.2974294712495365 -0.3553256786141073 1.5281284788530716
atom 63.1200000000000045 21.0400000000000027 0.0000000000000000 Ar
    velocity 0.1777892034426933 -0.3197601909518154 -0.3065310731857184
atom 68.3799999999999955 21.0400000000000027 0.0000000000000000 Ar
    velocity -0.0694733873514263 -0.1274516080339267 -1.3228463098376284
atom 73.6400000000000006 21.0400000000000027 0.0000000000000000 Ar
    velocity -0.8316268594178186 -0.5629243278638454 0.5436654744333831
atom 78.9000000000000057 21.0400000000000027 0.0000000000000000 Ar
    velocity 0.4323333614659655 0.4926135094425948 -0.1822737265509347
atom 84.1600000000000108 21.0400000000000027 0.0000000000000000 Ar
    velocity 0.4659874160979819 0.7015782001481113 -1.5252643911101109
atom 89.4200000000000017 21.0400000000000027 0.0000000000000000 Ar
    velocity -0.4808885145120965 0.8736497169588580 -0.5085924975643960
atom 94.6800000000000068 21.0400000000000027 0.0000000000000000 Ar
    velocity 0.5339002879732049 0.6758541420678799 -0.9997053992841213
atom 0.0000000000000000 26.2999999999999972 0.0000000000000000 Ar
    velocity 0.9616442795646342 -1.3408860191078817 -0.4457575245599688
atom 5.2600000000000007 26.2999999999999972 0.0000000000000000 Ar
    velocity -0.5043265725773698 1.4842103336785408 -0.1890122386796859
atom 10.5200000000000014 26.2999999999999972 0.0000000000000000 Ar
    velocity 0.4591994917823745 -0.9131096794062628 -0.0175686594222209
atom 15.7800000000000011 26.2999999999999972 0.0000000000000000 Ar
    velocity -0.9585638750597212 -0.8429545019883301 0.1179549149918993
atom 21.0400000000000027 26.2999999999999972 0.0000000000000000 Ar
    velocity 0.4729869386245465 -0.0121668800478354 0.5099453364998860
atom 26.2999999999999972 26.2999999999999972 0.0000000000000000 Ar
    velocity -0.1741707339249325 0.8159135524559947 -0.4298987428154885
atom 31.5600000000000023 26.2999999999999972 0.0000000000000000 Ar
    velocity 0.2236665258353405 -0.4285173491349116 -0.5128036669866719
atom 36.8200000000000003 26.2999999999999972 0.0000000000000000 Ar
    velocity 0.2562276314949608 1.3838967582633834 1.1206289606725621
atom 42.0800000000000054 26.2999999999999972 0.0000000000000000 Ar
    velocity 0.7968501008924301 0.4109563685699846 -1.1175165592210938
atom 47.3400000000000034 26.2999999999999972 0.0000000000000000 Ar
    velocity 0.7200879648707723 0.9270463785740335 -0.1702510403557833
atom 52.5999999999999943 26.2999999999999972 0.0000000000000000 Ar
    velocity -1.0448571795790440 0.5255462518311442 0.6265684949998173
atom 57.8599999999999994 26.2999999999999972 0.0000000000000000 Ar
    velocity 1.3875751831210728 -0.8196490628699719 -0.6585120425735794
atom 63.1200000000000045 26.2999999999999972 0.0000000000000000 Ar
    velocity 1.6332314727583443 0.2360505921889274 -0.9247218939612840
atom 68.3799999999999955 26.2999999999999972 0.0000000000000000 Ar
    velocity 1.2653999187461600 0.6968616689263013 0.8957029223298124
atom 73.6400000000000006 26.2999999999999972 0.0000000000000000 Ar
    velocity 0.5722804959115665 -0.0137529203221351 -0.9065874297643166
atom 78.9000000000000057 26.2999999999999972 0.0000000000000000 Ar
    velocity -0.6322450580345231 0.5431075181753900 1.2282541189547194
atom 84.1600000000000108 26.2999999999999972 0.0000000000000000 Ar
    velocity -1.5734340513290328 0.5677583035603925 -1.2519810412297963
atom 89.4200000000000017 26.2999999999999972 0.0000000000000000 Ar
    velocity 0.2188512363284312 0.4694399128911846 1.0185503009196779
atom 94.6800000000000068 26.2999999999999972 0.0000000000000000 Ar
    velocity -0.4254047174829624 0.6341982784543433 0.4020316322654375
atom 0.0000000000000000 31.5600000000000023 0.0000000000000000 Ar
    velocity -0.6656156667284362 -0.5748758307588425 -0.9402603498593226
atom 5.2600000000000007 31.5600000000000023 0.0000000000000000 Ar
    velocity 0.0240511489782575 2.5516483089194311 -0.3572886627016041
atom 10.5200000000000014 31.5600000000000023 0.0000000000000000 Ar
    velocity 0.3369516164157561 0.1074828957885973 -0.4003588279984348
atom 15.7800000000000011 31.5600000000000023 0.0000000000000000 Ar
    velocity 0.5883889321152523 -0.7305148062018281 -0.5682294469488810
atom 21.0400000000000027 31.5600000000000023 0.0000000000000000 Ar
    velocity 1.2008021311621317 -0.7159661540218746 -0.2442723485123086
atom 26.2999999999999972 31.5600000000000023 0.0000000000000000 Ar
    velocity -0.4549102743687556 -0.3388182147002042 -0.3640255043955691
atom 31.5600000000000023 31.5600000000000023 0.0000000000000000 Ar
    velocity -0.2126613020847364 -0.5818732194609464 -0.7364262053217024
atom 36.8200000000000003 31.5600000000000023 0.0000000000000000 Ar
    velocity 0.9199680351976066 1.0711948821176436 -1.0937723232199545
atom 42.0800000000000054 31.5600000000000023 0.0000000000000000 Ar
    velocity -0.3463437936120019 -0.6405396745937638 0.3267931374417351
atom 47.3400000000000034 31.5600000000000023 0.0000000000000000 Ar
    velocity 1.0371136021852772 0.2754754792319172 -0.8930047665126762
atom 52.5999999999999943 31.5600000000000023 0.0000000000000000 Ar
    velocity -0.5109253675604911 0.1896678061144007 -0.7031349902512490
atom 57.8599999999999994 31.5600000000000023 0.0000000000000000 Ar
    velocity -0.2499228358564612 0.9701085488330513 -0.1611802013530128
atom 63.1200000000000045 31.5600000000000023 0.0000000000000000 Ar
    velocity -1.0880399809831744 0.1404265819169393 0.1357550823623773
atom 68.3799999999999955 31.5600000000000023 0.0000000000000000 Ar
    velocity -0.0226122270490979 0.4514598569014686 0.0239778580424294
atom 73.6400000000000006 31.5600000000000023 0.0000000000000000 Ar
    velocity 0.3987720852078553 0.0627220628210342 1.0769902420013258
atom 78.9000000000000057 31.5600000000000023 0.0000000000000000 Ar
    velocity -1.2555825336155046 0.0084248214518874 -1.0962276586989079
atom 84.1600000000000108 31.5600000000000023 0.0000000000000000 Ar
    velocity 0.2968367898481011 1.1388469899668330 0.7330819184319940
atom 89.4200000000000017 31.5600000000000023 0.0000000000000000 Ar
    velocity 0.1074533417775326 -0.2156974378131168 -0.2200709206903156
atom 94.6800000000000068 31.5600000000000023 0.0000000000000000 Ar
    velocity 1.2980955519930553 -0.4697845194334944 -0.9975710547121923
atom 0.0000000000000000 36.8200000000000003 0.0000000000000000 Ar
    velocity -0.9214917703635304 -0.1297478177671686 -1.3614700014527272
atom 5.2600000000000007 36.8200000000000003 0.0000000000000000 Ar
    velocity -0.0122821527633293 0.3329270541753049 0.5088319615354884
atom 10.5200000000000014 36.8200000000000003 0.0000000000000000 Ar
    velocity 0.7279093062737541 0.6897571637657964 -0.3686675818649419
atom 15.7800000000000011 36.8200000000000003 0.0000000000000000 Ar
    velocity 0.9651825990334126 1.9318145707827077 -0.3468820551606929
atom 21.0400000000000027 36.8200000000000003 0.0000000000000000 Ar
    velocity -0.2041160189152428 -0.4909282744370596 -0.1357198404084327
atom 26.2999999999999972 36.8200000000000003 0.0000000000000000 Ar
    velocity 0.1339519098122438 0.0128776805730297 1.4004102020774869
atom 31.5600000000000023 36.8200000000000003 0.0000000000000000 Ar
    velocity 0.9624932855539311 -2.1685088863559883 -0.2346910460283376
atom 36.8200000000000003 36.8200000000000003 0.0000000000000000 Ar
    velocity -0.4522742357773168 0.8388480595626344 0.0724570393798786
atom 42.0800000000000054 36.8200000000000003 0.0000000000000000 Ar
    velocity -0.9937079370634189 0.8854656085384269 -0.6286165557936727
atom 47.3400000000000034 36.8200000000000003 0.0000000000000000 Ar
    velocity 0.4774846656506868 -1.5960291747833035 -0.0026774427548666
atom 52.5999999999999943 36.8200000000000003 0.0000000000000000 Ar
    velocity 0.7573336984472830 0.0219608801461506 -1.1428572018836416
atom 57.8599999999999994 36.8200000000000003 0.0000000000000000 Ar
    velocity -0.7202836373730888 0.3447294260101587 0.6441352812709205
atom 63.1200000000000045 36.8200000000000003 0.0000000000000000 Ar
    velocity 0.0803759264320753 0.6442002501848276 -0.0657450457609586
atom 68.3799999999999955 36.8200000000000003 0.0000000000000000 Ar
    velocity -0.8498537825059771 0.9012666379348186 0.2124872799968024
atom 73.6400000000000006 36.8200000000000003 0.0000000000000000 Ar
    velocity 0.7476590830864293 -1.5662221393714222 -0.3912924540494449
atom 78.9000000000000057 36.8200000000000003 0.0000000000000000 Ar
    velocity 0.1311301195590230 -0.5228581734284559 1.3167738200043537
atom 84.1600000000000108 36.8200000000000003 0.0000000000000000 Ar
    velocity -1.5818351786223770 -0.6213899140676094 0.3166575649665838
atom 89.4200000000000017 36.8200000000000003 0.0000000000000000 Ar
    velocity -0.3114965393128241 0.0437690671395485 -0.6083661203361900
atom 94.6800000000000068 36.8200000000000003 0.0000000000000000 Ar
    velocity 1.8361381197722173 0.5649823859044487 1.3970095099166897
atom 0.0000000000000000 42.0800000000000054 0.0000000000000000 Ar
    velocity 0.3616371424336905 -0.2040206184141325 0.3973053792534410
atom 5.2600000000000007 42.0800000000000054 0.0000000000000000 Ar
    velocity -0.3787322670761931 0.0131284299184951 -0.8336812688727802
atom 10.5200000000000014 42.0800000000000054 0.0000000000000000 Ar
    velocity 0.7835519143231428 -0.8900594610331045 0.4353343814768429
atom 15.7800000000000011 42.0800000000000054 0.0000000000000000 Ar
    velocity -1.6951497276932572 -0.1410269043510859 -1.6343905021067122
atom 21.0400000000000027 42.0800000000000054 0.0000000000000000 Ar
    velocity -0.4243790723838029 0.3945035523685525 0.1635099934894967
atom 26.2999999999999972 42.0800000000000054 0.0000000000000000 Ar
    velocity -0.3239335850244964 0.4970695804965610 0.1534722852726013
atom 31.5600000000000023 42.0800000000000054 0.0000000000000000 Ar
    velocity 0.2779180174227931 -0.4386946109852655 -0.8770185092636205
atom 36.8200000000000003 42.0800000000000054 0.0000000000000000 Ar
    velocity -0.5897773393842093 0.5188880301086498 0.2562776177818927
atom 42.0800000000000054 42.0800000000000054 0.0000000000000000 Ar
    velocity -0.6311942946524033 -0.3693094112264862 -0.4101646840281423
atom 47.3400000000000034 42.0800000000000054 0.0000000000000000 Ar
    velocity 0.7762314587847594 0.3506412349584981 -0.3139098564631076
atom 52.5999999999999943 42.0800000000000054 0.0000000000000000 Ar
    velocity 0.7371846157043727 -1.2705043930531785 0.1604939143100329
atom 57.8599999999999994 42.0800000000000054 0.0000000000000000 Ar
    velocity 0.4721437184112247 0.6394271028955338 -0.0410524499836297
atom 63.1200000000000045 42.0800000000000054 0.0000000000000000 Ar
    velocity 2.1839521938018684 -0.7714290059202705 -0.6780868420176871
atom 68.3799999999999955 42.0800000000000054 0.0000000000000000 Ar
    velocity -0.9899881110796384 -1.2783949150672878 0.5186851554940574
atom 73.6400000000000006 42.0800000000000054 0.0000000000000000 Ar
    velocity -0.4002859761394718 -0.2279102444816491 -0.4187305264554984
atom 78.9000000000000057 42.0800000000000054 0.0000000000000000 Ar
    velocity -1.5150950901831866 0.2257725802521698 0.3043006986554530
atom 84.1600000000000108 42.0800000000000054 0.0000000000000000 Ar
    velocity -0.4422492776557636 1.7321085615224756 1.1380634097650366
atom 89.4200000000000017 42.0800000000000054 0.0000000000000000 Ar
    velocity 0.3483259075928694 -0.4930763685307703 0.3081535986827033
atom 94.6800000000000068 42.0800000000000054 0.0000000000000000 Ar
    velocity 1.7131019073520766 -0.3613037499420924 0.3582253639477478
atom 0.0000000000000000 47.3400000000000034 0.0000000000000000 Ar
    velocity -1.8315222443256483 0.2314321821702562 -0.3304508398178570
atom 5.2600000000000007 47.3400000000000034 0.0000000000000000 Ar
    velocity -1.3564349679629375 -0.2442241599785875 0.4947685992448783
atom 10.5200000000000014 47.3400000000000034 0.0000000000000000 Ar
    velocity 0.7402483045497908 -0.8303414908090181 -0.9596947518990695
atom 15.7800000000000011 47.3400000000000034 0.0000000000000000 Ar
    velocity 0.1885125260797562 0.5773045450889359 0.3189510502245038
atom 21.0400000000000027 47.3400000000000034 0.0000000000000000 Ar
    velocity -0.0296732050575165 0.7853750279515775 -0.2135155003794680
atom 26.2999999999999972 47.3400000000000034 0.0000000000000000 Ar
    velocity -0.1410728195979687 0.6976706650446221 0.0547120822008297
atom 31.5600000000000023 47.3400000000000034 0.0000000000000000 Ar
    velocity -0.9434023619919130 -0.1367290992011037 0.7245412313086387
atom 36.8200000000000003 47.3400000000000034 0.0000000000000000 Ar
    velocity 0.5035783679173843 0.2113672235979039 0.6920469934609816
atom 42.0800000000000054 47.3400000000000034 0.0000000000000000 Ar
    velocity 0.4894486571036662 0.3070658556290332 -0.7891921428231589
atom 47.3400000000000034 47.3400000000000034 0.0000000000000000 Ar
    velocity -1.1047001938857433 -0.6803635919476229 0.0403930679309175
atom 52.5999999999999943 47.3400000000000034 0.0000000000000000 Ar
    velocity 0.0778520805004567 -0.6729993452037558 0.2568854083366128
atom 57.8599999999999994 47.3400000000000034 0.0000000000000000 Ar
    velocity 1.2464326037553548 0.1882686680640939 -0.0141798047222829
atom 63.1200000000000045 47.3400000000000034 0.0000000000000000 Ar
    velocity 1.5222212162369859 0.4224586745358677 0.3595365020544457
atom 68.3799999999999955 47.3400000000000034 0.0000000000000000 Ar
    velocity 0.2777995541129500 -0.8378758003175691 0.2926912053742566
atom 73.6400000000000006 47.3400000000000034 0.0000000000000000 Ar
    velocity 0.1774032592553704 -0.3906303455313521 0.2905713357441465
atom 78.9000000000000057 47.3400000000000034 0.0000000000000000 Ar
    velocity -0.5145573621221065 0.4888936525533323 -0.5013542619810102
atom 84.1600000000000108 47.3400000000000034 0.0000000000000000 Ar
    velocity 1.0225902987724294 0.6768221595445764 -0.7646620042721771
atom 89.4200000000000017 47.3400000000000034 0.0000000000000000 Ar
    velocity 0.3466955920783620 0.0062591295723436 -0.6492765577697586
atom 94.6800000000000068 47.3400000000000034 0.0000000000000000 Ar
    velocity 0.2161129138978393 0.0440584070160707 0.2835732572793185
atom 0.0000000000000000 52.5999999999999943 0.0000000000000000 Ar
    velocity 0.4487101688418554 1.3747034520066739 -0.4492528452016745
atom 5.2600000000000007 52.5999999999999943 0.0000000000000000 Ar
    velocity -0.0648539643575496 -0.0701140129179349 1.5866744219677547
atom 10.5200000000000014 52.5999999999999943 0.0000000000000000 Ar
    velocity 0.1015206051086489 0.1564843434916773 0.8009740217347522
atom 15.7800000000000011 52.5999999999999943 0.0000000000000000 Ar
    velocity -0.0020142490844496 -1.3063942016872780 0.0326361947850143
atom 21.0400000000000027 52.5999999999999943 0.0000000000000000 Ar
    velocity -1.4567146867322980 -0.3129855704898602 0.1958054206149136
atom 26.2999999999999972 52.5999999999999943 0.0000000000000000 Ar
    velocity 0.1180284247702286 -0.4675634750477338 0.8057521627305670
atom 31.5600000000000023 52.5999999999999943 0.0000000000000000 Ar
    velocity -1.0292590840880955 -0.2922377985980748 -1.3552606493848385
atom 36.8200000000000003 52.5999999999999943 0.0000000000000000 Ar
    velocity 1.1873856076974918 0.6288735870331704 -0.4027395028866029
atom 42.0800000000000054 52.5999999999999943 0.0000000000000000 Ar
    velocity -0.2983441443700438 0.8008880559552382 -0.7366689785619174
atom 47.3400000000000034 52.5999999999999943 0.0000000000000000 Ar
    velocity 0.5287623290430283 -0.3957916392650089 -0.6822301817931277
atom 52.5999999999999943 52.5999999999999943 0.0000000000000000 Ar
    velocity -0.0840595992590025 0.3948056408724621 0.0342737676813656
atom 57.8599999999999994 52.5999999999999943 0.0000000000000000 Ar
    velocity 1.2606170516472757 1.9231419755865693 -1.7409701833221483
atom 63.1200000000000045 52.5999999999999943 0.0000000000000000 Ar
    velocity -1.0540782834196292 -0.2110444020793889 -1.4899190361756844
atom 68.3799999999999955 52.5999999999999943 0.0000000000000000 Ar
    velocity -0.9999942510857268 -0.4584067478217319 -0.0561413524370526
atom 73.6400000000000006 52.5999999999999943 0.0000000000000000 Ar
    velocity -0.1530945049256092 0.0426355099775554 -0.1018455648116463
atom 78.9000000000000057 52.5999999999999943 0.0000000000000000 Ar
    velocity 0.6479539563266227 0.5301123623244963 -1.2175066666907668
atom 84.1600000000000108 52.5999999999999943 0.0000000000000000 Ar
    velocity -0.4185705557831310 0.1230644676825346 0.8685283249351193
atom 89.4200000000000017 52.5999999999999943 0.0000000000000000 Ar
    velocity 0.0342566987389629 -0.5864073676394953 0.2423244628691126
atom 94.6800000000000068 52.5999999999999943 0.0000000000000000 Ar
    velocity -0.3531682996281076 -0.3203581436291235 1.5420195728353554
atom 0.0000000000000000 57.8599999999999994 0.0000000000000000 Ar
    velocity -1.4820013441824349 -0.6913304263084616 -0.1242578556689164
atom 5.2600000000000007 57.8599999999999994 0.0000000000000000 Ar
    velocity 1.0359733327921774 -0.0707896886020131 -0.6797207185979245
atom 10.5200000000000014 57.8599999999999994 0.0000000000000000 Ar
    velocity 0.5694419855242526 -0.1805116422990825 0.8970635864441929
atom 15.7800000000000011 57.8599999999999994 0.0000000000000000 Ar
    velocity 1.1883940725359146 -0.7302904643664384 -0.9129356036632335
atom 21.0400000000000027 57.8599999999999994 0.0000000000000000 Ar