#=======================================================
# FHI-aims file: argon_13500_30k.in
# Created using the Atomic Simulation Environment (ASE)
# Tue Jun 15 19:25:02 2021
#=======================================================
lattice_vector 78.8999999999999915 0.0000000000000000 0.0000000000000000 
lattice_vector 0.0000000000000000 78.8999999999999915 0.0000000000000000 
lattice_vector 0.0000000000000000 0.0000000000000000 78.8999999999999915 
atom 0.0000000000000000 0.0000000000000000 0.0000000000000000 Ar
    velocity -0.7500709892535830 -1.4774094460778793 1.0915161953102346
atom 5.2599999999999998 0.0000000000000000 0.0000000000000000 Ar
    velocity 0.2814161197162622 0.2106701275727255 0.3379776149043733
atom 10.5199999999999996 0.0000000000000000 0.0000000000000000 Ar
    velocity -0.4184853700141877 0.7691867193053435 -0.4017197119010998
atom 15.7799999999999994 0.0000000000000000 0.0000000000000000 Ar
    velocity 0.3181329809550585 -0.2172305223586503 -0.0219537240172528
atom 21.0399999999999991 0.0000000000000000 0.0000000000000000 Ar
    velocity -1.3161561807030107 1.1269675540554958 0.7299743306779828
atom 26.2999999999999972 0.0000000000000000 0.0000000000000000 Ar
    velocity 0.4961694042082540 -0.8834310644178769 0.3566990736695492
atom 31.5599999999999987 0.0000000000000000 0.0000000000000000 Ar
    velocity 1.0709114134180526 0.8365587935504041 -0.2263299774797947
atom 36.8199999999999932 0.0000000000000000 0.0000000000000000 Ar
    velocity 0.0081258062960334 0.2666696560001723 -0.9789117530377662
atom 42.0799999999999983 0.0000000000000000 0.0000000000000000 Ar
    velocity -2.2934958587749747 0.7172206511765036 0.4477434563324508
atom 47.3399999999999963 0.0000000000000000 0.0000000000000000 Ar
    velocity 1.2617577297137306 0.4436358789240468 0.0997383544482660
atom 52.5999999999999943 0.0000000000000000 0.0000000000000000 Ar
    velocity -0.5185118274407859 -1.5695039872334149 -1.4110095684586930
atom 57.8599999999999923 0.0000000000000000 0.0000000000000000 Ar
    velocity 1.7035284661292271 1.2623627838628679 0.6093265629098427
atom 63.1199999999999974 0.0000000000000000 0.0000000000000000 Ar
    velocity -0.0229744454254848 0.2987425476405221 0.4013250382626184
atom 68.3799999999999955 0.0000000000000000 0.0000000000000000 Ar
    velocity -0.8144211614181279 -0.3063265914710869 -1.0380104940332335
atom 73.6399999999999864 0.0000000000000000 0.0000000000000000 Ar
    velocity -0.4346187857935325 1.1941658509508877 1.2510662717470786
atom 0.0000000000000000 5.2599999999999998 0.0000000000000000 Ar
    velocity -0.2856107638376258 0.8768973958186811 0.8438414265894375
atom 5.2599999999999998 5.2599999999999998 0.0000000000000000 Ar
    velocity -0.1743603524922373 -0.4577021542749029 0.3659930808579697
atom 10.5199999999999996 5.2599999999999998 0.0000000000000000 Ar
    velocity -0.0460587468696986 0.2353760523202366 0.0405462722975511
atom 15.7799999999999994 5.2599999999999998 0.0000000000000000 Ar
    velocity 0.3153999078488736 1.1806785469839538 0.3194307963681844
atom 21.0399999999999991 5.2599999999999998 0.0000000000000000 Ar
    velocity 0.6316134057710808 1.5315233218790054 0.5518515366498613
atom 26.2999999999999972 5.2599999999999998 0.0000000000000000 Ar
    velocity -1.1172325271022148 -1.1323393891900246 1.7286357266979695
atom 31.5599999999999987 5.2599999999999998 0.0000000000000000 Ar
    velocity 0.9700918661444250 -0.0275948508808247 -0.0165236065665362
atom 36.8199999999999932 5.2599999999999998 0.0000000000000000 Ar
    velocity 1.7647931682714748 -0.3343378540200233 -0.4974332638829792
atom 42.0799999999999983 5.2599999999999998 0.0000000000000000 Ar
    velocity 0.5047960947319421 0.4495248307955566 -0.5133580263681395
atom 47.3399999999999963 5.2599999999999998 0.0000000000000000 Ar
    velocity -1.2526760835628579 -1.0303852408965892 -0.8533775160961491
atom 52.5999999999999943 5.2599999999999998 0.0000000000000000 Ar
    velocity 0.5318399511670869 -1.0877039482493043 -0.3406290946704889
atom 57.8599999999999923 5.2599999999999998 0.0000000000000000 Ar
    velocity -1.2355477936331942 0.4268532920019208 -0.2784507637799809
atom 63.1199999999999974 5.2599999999999998 0.0000000000000000 Ar
    velocity -0.1046534234793046 -0.1539635265919508 0.2303628218806071
atom 68.3799999999999955 5.2599999999999998 0.0000000000000000 Ar
    velocity -0.6853345459090525 -1.0838349030634293 -0.4589830234004682
atom 73.6399999999999864 5.2599999999999998 0.0000000000000000 Ar
    velocity 0.6038384138790762 -1.8012326349325427 -2.0328566648189610
atom 0.0000000000000000 10.5199999999999996 0.0000000000000000 Ar
    velocity 0.0610810619611285 -1.5083322796884902 0.2390488171044213
atom 5.2599999999999998 10.5199999999999996 0.0000000000000000 Ar
    velocity 0.4015282999308699 -1.0226762840399679 0.7167092929797217
atom 10.5199999999999996 10.5199999999999996 0.0000000000000000 Ar
    velocity 0.9380996974622809 0.0004154961668712 1.8087458635926026
atom 15.7799999999999994 10.5199999999999996 0.0000000000000000 Ar
    velocity 1.3495646032167734 0.1252605066829828 -0.0328784963083779
atom 21.0399999999999991 10.5199999999999996 0.0000000000000000 Ar
    velocity 1.3969731872650544 0.8841853329429983 0.1442109304557396
atom 26.2999999999999972 10.5199999999999996 0.0000000000000000 Ar
    velocity -0.2036253176832307 -0.8671775740188674 -0.0193376590313096
atom 31.5599999999999987 10.5199999999999996 0.0000000000000000 Ar
    velocity -0.2591531368460836 -0.7378453879972756 0.2461873845575850
atom 36.8199999999999932 10.5199999999999996 0.0000000000000000 Ar
    velocity 0.3601868614194522 1.0235934680587424 0.9391267190592840
atom 42.0799999999999983 10.5199999999999996 0.0000000000000000 Ar
    velocity 2.2487163701479194 -0.6702023037930350 1.3146967046144133
atom 47.3399999999999963 10.5199999999999996 0.0000000000000000 Ar
    velocity 0.2457279553319457 0.2264084617617571 -0.5647481693387530
atom 52.5999999999999943 10.5199999999999996 0.0000000000000000 Ar
    velocity -0.2193414668521098 -0.3340413082836893 -1.2649200863686259
atom 57.8599999999999923 10.5199999999999996 0.0000000000000000 Ar
    velocity 0.2101638370410026 -0.1284756935271825 0.0479549033979721
atom 63.1199999999999974 10.5199999999999996 0.0000000000000000 Ar
    velocity -0.2851189985447997 0.0710892192330310 -0.7951454255291921
atom 68.3799999999999955 10.5199999999999996 0.0000000000000000 Ar
    velocity -0.8709714982894647 0.0277573932565886 -0.3580628404685520
atom 73.6399999999999864 10.5199999999999996 0.0000000000000000 Ar
    velocity 0.2356421193340638 1.2234235740849582 1.4336402685410359
atom 0.0000000000000000 15.7799999999999994 0.0000000000000000 Ar
    velocity 0.2067174791349873 -0.7702991332681283 0.3916405058242857
atom 5.2599999999999998 15.7799999999999994 0.0000000000000000 Ar
    velocity 0.8441335910796484 0.8818052225926858 -1.1368579612819487
atom 10.5199999999999996 15.7799999999999994 0.0000000000000000 Ar
    velocity -0.4437862501848296 -1.6914068041264667 -1.0784341783534255
atom 15.7799999999999994 15.7799999999999994 0.0000000000000000 Ar
    velocity -0.0207168378172514 -0.8386081623213837 -0.1977703394597650
atom 21.0399999999999991 15.7799999999999994 0.0000000000000000 Ar
    velocity -0.5558227424972695 -0.9991148690371533 -0.0619201231424477
atom 26.2999999999999972 15.7799999999999994 0.0000000000000000 Ar
    velocity -0.4966852077529222 0.6926567222504052 -0.5244612426555354
atom 31.5599999999999987 15.7799999999999994 0.0000000000000000 Ar
    velocity 0.2431566351836622 0.3566271962289670 -0.7193635709917668
atom 36.8199999999999932 15.7799999999999994 0.0000000000000000 Ar
    velocity 0.7197950019348489 0.5389561632017942 0.5839187549435685
atom 42.0799999999999983 15.7799999999999994 0.0000000000000000 Ar
    velocity 1.8618592627222175 0.1635423721157359 -0.6647072788061312
atom 47.3399999999999963 15.7799999999999994 0.0000000000000000 Ar
    velocity 2.0136586297773058 -0.8192374948276969 0.2859267585744990
atom 52.5999999999999943 15.7799999999999994 0.0000000000000000 Ar
    velocity -0.8716824647628695 -0.4507734859277514 -0.2283532998269203
atom 57.8599999999999923 15.7799999999999994 0.0000000000000000 Ar
    velocity 0.2316402617263268 0.0893727476097731 0.9680981856507206
atom 63.1199999999999974 15.7799999999999994 0.0000000000000000 Ar
    velocity 1.1379271161038242 -1.1985853836178493 0.4414252100495009
atom 68.3799999999999955 15.7799999999999994 0.0000000000000000 Ar
    velocity -1.1899936003298450 0.2344487655079199 0.5129228898674613
atom 73.6399999999999864 15.7799999999999994 0.0000000000000000 Ar
    velocity -0.5781407192693669 -0.4810200294597686 0.2629937716105142
atom 0.0000000000000000 21.0399999999999991 0.0000000000000000 Ar
    velocity 0.4476100894597650 -0.4035850867568049 0.3967445777132701
atom 5.2599999999999998 21.0399999999999991 0.0000000000000000 Ar
    velocity 1.2830307582137974 0.0129660810577690 -1.9542545084028322
atom 10.5199999999999996 21.0399999999999991 0.0000000000000000 Ar
    velocity 0.3882064522760860 0.4121506532373989 0.2229735789201066
atom 15.7799999999999994 21.0399999999999991 0.0000000000000000 Ar
    velocity 0.6082721717722247 -0.5558840564572075 0.4851123164724490
atom 21.0399999999999991 21.0399999999999991 0.0000000000000000 Ar
    velocity 0.4946597424563504 -0.0088759622825669 0.3405898622248903
atom 26.2999999999999972 21.0399999999999991 0.0000000000000000 Ar
    velocity 1.7352898176370986 0.0732690314210406 0.5060939851843161
atom 31.5599999999999987 21.0399999999999991 0.0000000000000000 Ar
    velocity -0.8515256777927511 -0.2462811149077674 0.5797338114579793
atom 36.8199999999999932 21.0399999999999991 0.0000000000000000 Ar
    velocity 0.1492042017924050 -0.2070609625488160 1.3540606749330497
atom 42.0799999999999983 21.0399999999999991 0.0000000000000000 Ar
    velocity -0.5377258181217077 0.2936864418052484 0.3767453017585434
atom 47.3399999999999963 21.0399999999999991 0.0000000000000000 Ar
    velocity 0.1457198895976044 0.0988742015475107 -0.3275923957134425
atom 52.5999999999999943 21.0399999999999991 0.0000000000000000 Ar
    velocity 1.2530414217021053 0.4826802856761379 0.6058207249179361
atom 57.8599999999999923 21.0399999999999991 0.0000000000000000 Ar
    velocity -0.1251325916993166 -0.0819475308095959 -0.1769701278418638
atom 63.1199999999999974 21.0399999999999991 0.0000000000000000 Ar
    velocity -0.3825723449570398 -0.3021134968513368 -1.0159480444111171
atom 68.3799999999999955 21.0399999999999991 0.0000000000000000 Ar
    velocity -0.1963716509719446 0.1188309358195008 -0.3037575373957888
atom 73.6399999999999864 21.0399999999999991 0.0000000000000000 Ar
    velocity -0.9480864140164948 0.6744746577363485 1.9458744334116169
atom 0.0000000000000000 26.2999999999999972 0.0000000000000000 Ar
    velocity -1.5798565872838455 0.2994147696399892 -0.3062449354776716
atom 5.2599999999999998 26.2999999999999972 0.0000000000000000 Ar
    velocity 0.5758544905599069 -1.4373663648606914 0.2902908451777718
atom 10.5199999999999996 26.2999999999999972 0.0000000000000000 Ar
    velocity -0.7053408146897939 -0.4290305569959604 -0.6329907613653416
atom 15.7799999999999994 26.2999999999999972 0.0000000000000000 Ar
    velocity 0.5386022873166293 1.2209323123472162 -2.1738227271436146
atom 21.0399999999999991 26.2999999999999972 0.0000000000000000 Ar
    velocity -0.4187097880819536 -1.7782130892818870 1.3236345984569422
atom 26.2999999999999972 26.2999999999999972 0.0000000000000000 Ar
    velocity 0.7371322776960052 -0.2344668866801602 2.4455703222751075
atom 31.5599999999999987 26.2999999999999972 0.0000000000000000 Ar
    velocity -0.5998908054205695 -0.5521712861857159 -0.7460391701566179
atom 36.8199999999999932 26.2999999999999972 0.0000000000000000 Ar
    velocity 0.7668233924188164 -0.4156471809635018 -0.4370325596746219
atom 42.0799999999999983 26.2999999999999972 0.0000000000000000 Ar
    velocity -0.1501818228745910 -0.2768906927570511 1.3038788070285621
atom 47.3399999999999963 26.2999999999999972 0.0000000000000000 Ar
    velocity -1.5753109626477861 -0.7736153672003246 -0.6802783234063741
atom 52.5999999999999943 26.2999999999999972 0.0000000000000000 Ar
    velocity -1.0131709658868160 0.8168738799125411 -0.6221020520764815
atom 57.8599999999999923 26.2999999999999972 0.0000000000000000 Ar
    velocity 0.0866262500204032 0.7565141235716234 -1.2485502191342506
atom 63.1199999999999974 26.2999999999999972 0.0000000000000000 Ar
    velocity 1.2105224120309612 1.1294764948852085 0.0333877534867693
atom 68.3799999999999955 26.2999999999999972 0.0000000000000000 Ar
    velocity 0.5625299750990261 -1.1974142837638628 0.2290577793852125
atom 73.6399999999999864 26.2999999999999972 0.0000000000000000 Ar
    velocity -0.5806131737121316 0.3874851230439709 -0.6018816817022279
atom 0.0000000000000000 31.5599999999999987 0.0000000000000000 Ar
    velocity 2.2599710917139362 0.4132410548376670 -0.6588595043959937
atom 5.2599999999999998 31.5599999999999987 0.0000000000000000 Ar
    velocity 1.1952556600054505 0.0426817962573968 0.7844763110606265
atom 10.5199999999999996 31.5599999999999987 0.0000000000000000 Ar
    velocity -0.4351915951907085 1.3857823454421070 -0.7730651493430131
atom 15.7799999999999994 31.5599999999999987 0.0000000000000000 Ar
    velocity 0.5520514713563985 0.7188181314469105 -0.0338724189116821
atom 21.0399999999999991 31.5599999999999987 0.0000000000000000 Ar
    velocity 0.1126183071141462 0.2577441231680679 -0.9693035344733175
atom 26.2999999999999972 31.5599999999999987 0.0000000000000000 Ar
    velocity 0.1912126427813873 -0.3817634432004362 -0.0563316712302594
atom 31.5599999999999987 31.5599999999999987 0.0000000000000000 Ar
    velocity -0.2955620257841355 -0.7412709509873975 0.6788675717347981
atom 36.8199999999999932 31.5599999999999987 0.0000000000000000 Ar
    velocity -0.3813737955357241 0.9763667026881520 1.0881083799532081
atom 42.0799999999999983 31.5599999999999987 0.0000000000000000 Ar
    velocity 0.1980918468318972 0.7468908789487491 0.2676930565535319
atom 47.3399999999999963 31.5599999999999987 0.0000000000000000 Ar
    velocity -0.2989677417061579 -2.2644480391177337 1.0753521184695478
atom 52.5999999999999943 31.5599999999999987 0.0000000000000000 Ar
    velocity 0.6873820465063873 0.1933007273209325 -0.5517314655910301
atom 57.8599999999999923 31.5599999999999987 0.0000000000000000 Ar
    velocity 0.2517239551859704 -0.5556648304860884 -0.9507026651306859
atom 63.1199999999999974 31.5599999999999987 0.0000000000000000 Ar
    velocity -1.8570904235874257 -0.5411184929443887 0.4442810110973661
atom 68.3799999999999955 31.5599999999999987 0.0000000000000000 Ar
    velocity -0.5193441049447112 -0.6369638168481423 -0.1988411073804343
atom 73.6399999999999864 31.5599999999999987 0.0000000000000000 Ar
    velocity -0.6732793335038302 0.2468896448408046 -0.3258680988899101
atom 0.0000000000000000 36.8199999999999932 0.0000000000000000 Ar
    velocity -0.3302694809366933 -0.3559656708916539 1.4741984996200459
atom 5.2599999999999998 36.8199999999999932 0.0000000000000000 Ar
    velocity 1.2300798617202171 -0.7661562797649542 -0.0041779550477677
atom 10.5199999999999996 36.8199999999999932 0.0000000000000000 Ar
    velocity -0.2799646510394715 1.2466931231691856 0.4259335529152247
atom 15.7799999999999994 36.8199999999999932 0.0000000000000000 Ar
    velocity 0.7447052936707111 1.2987542874689486 -0.5814680384367453
atom 21.0399999999999991 36.8199999999999932 0.0000000000000000 Ar
    velocity 0.6191370580493032 -0.4050325638345562 0.1198890511902424
atom 26.2999999999999972 36.8199999999999932 0.0000000000000000 Ar
    velocity -0.6916430312545917 -0.4814227917277050 -0.1306252719370536
atom 31.5599999999999987 36.8199999999999932 0.0000000000000000 Ar
    velocity 1.1418047484463636 -1.5054208505672058 -1.6530244922390191
atom 36.8199999999999932 36.8199999999999932 0.0000000000000000 Ar
    velocity 0.0414298614500716 -0.0558526255402920 1.1528323996117416
atom 42.0799999999999983 36.8199999999999932 0.0000000000000000 Ar
    velocity -0.7495972170294194 0.3999946539283192 -0.4193212624112578
atom 47.3399999999999963 36.8199999999999932 0.0000000000000000 Ar
    velocity 1.1960465436898440 -0.7472323419603660 -2.0559614041359477
atom 52.5999999999999943 36.8199999999999932 0.0000000000000000 Ar
    velocity -1.2858364539838418 -0.2554031413831786 0.2979845281595089
atom 57.8599999999999923 36.8199999999999932 0.0000000000000000 Ar
    velocity 1.0107091758558295 -0.6905490846049989 -1.8707326215674114
atom 63.1199999999999974 36.8199999999999932 0.0000000000000000 Ar
    velocity -0.2114646672542377 -1.0166606668811233 1.1678382344238725
atom 68.3799999999999955 36.8199999999999932 0.0000000000000000 Ar
    velocity -1.2767130589917335 -1.2550550311361266 -0.9113100336201071
atom 73.6399999999999864 36.8199999999999932 0.0000000000000000 Ar
    velocity 0.4865197070616036 0.0179641617497926 0.6989942284089254
atom 0.0000000000000000 42.0799999999999983 0.0000000000000000 Ar
    velocity 0.5467855408081992 -0.9907483895943797 1.0006730402179889
atom 5.2599999999999998 42.0799999999999983 0.0000000000000000 Ar
    velocity 0.4114733718569856 0.1041170988540808 -0.6638525007860619
atom 10.5199999999999996 42.0799999999999983 0.0000000000000000 Ar
    velocity -0.2954103528968935 -0.2437397550608818 0.0356555925061015
atom 15.7799999999999994 42.0799999999999983 0.0000000000000000 Ar
    velocity -0.5693944864748750 -0.2428757175555774 -1.4801236871627521
atom 21.0399999999999991 42.0799999999999983 0.0000000000000000 Ar
    velocity -0.7861474584895031 0.2158710469012889 -1.3982097610711453
atom 26.2999999999999972 42.0799999999999983 0.0000000000000000 Ar
    velocity -0.0561870951722938 -0.9105347397946727 -0.3224330241493444
atom 31.5599999999999987 42.0799999999999983 0.0000000000000000 Ar
    velocity -0.3651531284352930 -0.2337968596242693 0.3630003597798138
atom 36.8199999999999932 42.0799999999999983 0.0000000000000000 Ar
    velocity -0.8996107265557691 1.0706738624520220 -0.6943185464630804
atom 42.0799999999999983 42.0799999999999983 0.0000000000000000 Ar
    velocity 1.2545350992480926 0.4956853060731417 -0.0949467563010758
atom 47.3399999999999963 42.0799999999999983 0.0000000000000000 Ar
    velocity 0.6313252474307064 -0.3633929269495645 -1.0581937769437573
atom 52.5999999999999943 42.0799999999999983 0.0000000000000000 Ar
    velocity -2.6554939362116259 0.7267625881476446 0.0615831426955711
atom 57.8599999999999923 42.0799999999999983 0.0000000000000000 Ar
    velocity -1.9536045067845107 0.2667331829629709 0.1303021361769159
atom 63.1199999999999974 42.0799999999999983 0.0000000000000000 Ar
    velocity 0.2363161375333160 0.8732544669858322 -0.4708525086378351
atom 68.3799999999999955 42.0799999999999983 0.0000000000000000 Ar
    velocity 0.0555313032553627 -0.8114589256653882 1.9631530983257190
atom 73.6399999999999864 42.0799999999999983 0.0000000000000000 Ar
    velocity 1.3995373072189028 0.9204178981697816 0.7303459129455847
atom 0.0000000000000000 47.3399999999999963 0.0000000000000000 Ar
    velocity -1.4889538116625209 0.2219390164566890 -0.6101472117554324
atom 5.2599999999999998 47.3399999999999963 0.0000000000000000 Ar
    velocity 1.5360538248773625 -0.3824662729555910 -0.3458139970780795
atom 10.5199999999999996 47.3399999999999963 0.0000000000000000 Ar
    velocity -0.8194097566356492 -0.4684972880364725 0.6941206452799301
atom 15.7799999999999994 47.3399999999999963 0.0000000000000000 Ar
    velocity -0.2454960512466045 0.1748311434840419 -0.9431642527359589
atom 21.0399999999999991 47.3399999999999963 0.0000000000000000 Ar
    velocity -0.5960395865046880 0.6003733888690496 0.5043299051641620
atom 26.2999999999999972 47.3399999999999963 0.0000000000000000 Ar
    velocity 1.2052953106244231 0.5777300002307327 0.1528654277215506
atom 31.5599999999999987 47.3399999999999963 0.0000000000000000 Ar
    velocity -0.8499002595458519 1.0203551891807494 -0.5749485380838658
atom 36.8199999999999932 47.3399999999999963 0.0000000000000000 Ar
    velocity -0.3017015142631910 -0.8605581755278191 -0.8585231634679544
atom 42.0799999999999983 47.3399999999999963 0.0000000000000000 Ar
    velocity 1.3027883238975648 0.2404306470574659 -1.8035059915218987
atom 47.3399999999999963 47.3399999999999963 0.0000000000000000 Ar
    velocity 1.6590626542788314 0.1676838748857891 0.1168909345559126
atom 52.5999999999999943 47.3399999999999963 0.0000000000000000 Ar
    velocity 2.3202083770055846 0.5746627208756813 -1.9136841941822913
atom 57.8599999999999923 47.3399999999999963 0.0000000000000000 Ar
    velocity -0.6677191897508203 -1.4799594690437865 0.7612462880115318
atom 63.1199999999999974 47.3399999999999963 0.0000000000000000 Ar
    velocity 0.0489225558262313 -0.2258168761995009 -0.3460422011529448
atom 68.3799999999999955 47.3399999999999963 0.0000000000000000 Ar
    velocity -1.4324779394111475 0.4054587144986172 0.0390843822801809
atom 73.6399999999999864 47.3399999999999963 0.0000000000000000 Ar
    velocity -0.6162027423894451 0.1563731426877836 0.5615230995641005
atom 0.0000000000000000 52.5999999999999943 0.0000000000000000 Ar
    velocity 1.0129816708794088 -0.1068829148214342 0.2063313481926724
atom 5.2599999999999998 52.5999999999999943 0.0000000000000000 Ar
    velocity 0.6072089871211006 0.1903784784362424 0.7038940851018702
atom 10.5199999999999996 52.5999999999999943 0.0000000000000000 Ar
    velocity -0.7647939627117099 -0.8132752322198165 -0.6712850229962813
atom 15.7799999999999994 52.5999999999999943 0.0000000000000000 Ar
    velocity 0.6304742767421553 -1.5635342837272297 0.5008338637865888
atom 21.0399999999999991 52.5999999999999943 0.0000000000000000 Ar
    velocity 0.0913411593236199 0.4775685784566703 -0.0386092303150656
atom 26.2999999999999972 52.5999999999999943 0.0000000000000000 Ar
    velocity 0.7991393351752515 1.4414199143625186 1.0374055368833546
atom 31.5599999999999987 52.5999999999999943 0.0000000000000000 Ar
    velocity 0.7949760613388357 0.3940723804831608 -0.3193366800098020
atom 36.8199999999999932 52.5999999999999943 0.0000000000000000 Ar
    velocity 0.2958139974260971 0.1771765322989878 -0.2184987211358179
atom 42.0799999999999983 52.5999999999999943 0.0000000000000000 Ar
    velocity 1.3042701076286038 -0.9022953243663856 -0.0235662000402199
atom 47.3399999999999963 52.5999999999999943 0.0000000000000000 Ar
    velocity 0.6284884840285052 0.3205574770474762 -0.8354520877862703
atom 52.5999999999999943 52.5999999999999943 0.0000000000000000 Ar
    velocity -1.4022587590118438 -0.2312286846426895 0.3875884578801019
atom 57.8599999999999923 52.5999999999999943 0.0000000000000000 Ar
    velocity 0.5972658136250183 -0.2385350238389297 0.8778237087194992
atom 63.1199999999999974 52.5999999999999943 0.0000000000000000 Ar
    velocity 0.4619974450056360 -0.7670041854252801 0.3909825076722720
atom 68.3799999999999955 52.5999999999999943 0.0000000000000000 Ar
    velocity -1.2951487296252386 1.4413767804248854 -0.5334762476747034
atom 73.6399999999999864 52.5999999999999943 0.0000000000000000 Ar
    velocity 1.3601406331365853 1.3636514103961987 -1.1488899412606921
atom 0.0000000000000000 57.8599999999999923 0.0000000000000000 Ar
    velocity 0.3777629797657328 1.0100602285571867 1.1663836767363287
atom 5.2599999999999998 57.8599999999999923 0.0000000000000000 Ar
    velocity -0.4518705509302022 0.2856368786961060 0.0332429986524412
atom 10.5199999999999996 57.8599999999999923 0.0000000000000000 Ar
    velocity 0.8346815647188611 -0.3478620057334487 -0.7280554434748351
atom 15.7799999999999994 57.8599999999999923 0.0000000000000000 Ar
    velocity 0.0597305392122619 -0.9874444853896306 1.2373838375731856
atom 21.0399999999999991 57.8599999999999923 0.0000000000000000 Ar
    velocity 1.0751430737234879 0.8687481524012769 0.3287844542606517
atom 26.2999999999999972 57.8599999999999923 0.0000000000000000 Ar
    velocity 0.2930167499799332 -0.6334401724444613 -0.1043419870090078
atom 31.5599999999999987 57.8599999999999923 0.0000000000000000 Ar
    velocity -0.3253237646597385 0.9861062497433377 -1.1087831490037290
atom 36.8199999999999932 57.8599999999999923 0.0000000000000000 Ar
    velocity -0.4490708834831225 0.8779458481765630 -0.1329870588115037
atom 42.0799999999999983 57.8599999999999923 0.0000000000000000 Ar
    velocity 0.1952367119831500 0.3542032881057435 -1.1992363207460901
atom 47.3399999999999963 57.8599999999999923 0.0000000000000000 Ar
    velocity 0.3428504339411169 -0.3471992248307357 -0.3916966390131437
atom 52.5999999999999943 57.8599999999999923 0.0000000000000000 Ar
    velocity -1.2000224402730635 0.7860553414393407 -0.5596845924898722
atom 57.8599999999999923 57.8599999999999923 0.0000000000000000 Ar
    velocity -1.2587451968865366 0.5644441427275395 1.3489860309531698
atom 63.1199999999999974 57.8599999999999923 0.0000000000000000 Ar
    velocity -0.2769505804741512 -0.1510989740273032 -0.9582054629559110
atom 68.3799999999999955 57.8599999999999923 0.0000000000000000 Ar
    velocity 0.4077164514623970 -0.7666604554072497 1.1651130277247397
atom 73.6399999999999864 57.8599999999999923 0.0000000000000000 Ar
    velocity -0.1793705337520332 -0.2633083716035914 0.6717900718844333
atom 0.0000000000000000 63.1199999999999974 0.0000000000000000 Ar
    velocity -0.5117252548462851 0.8825087774571377 0.6004809078213146
atom 5.2599999999999998 63.1199999999999974 0.0000000000000000 Ar
    velocity -0.3533859667728376 0.8869650545609081 -0.3356459903483358
atom 10.5199999999999996 63.1199999999999974 0.0000000000000000 Ar
    velocity 0.8956991796627179 -0.3895718565752933 -0.5050859568747978
atom 15.7799999999999994 63.1199999999999974 0.0000000000000000 Ar
    velocity 0.6388179562126358 -1.1957364460764908 1.2496017086291622
atom 21.0399999999999991 63.1199999999999974 0.0000000000000000 Ar
    velocity -0.0396427558800189 -0.8332510436586809 -1.1836330685864731
atom 26.2999999999999972 63.1199999999999974 0.0000000000000000 Ar
    velocity -0.3286621779343017 0.7541026563154917 1.6556359329020012
atom 31.5599999999999987 63.1199999999999974 0.0000000000000000 Ar
    velocity 1.4099812737126676 1.4929016197636853 0.9477214680222403
atom 36.8199999999999932 63.1199999999999974 0.0000000000000000 Ar
    velocity 0.8857208747642120 -0.2684159343903085 -0.5655165656466463
atom 42.0799999999999983 63.1199999999999974 0.0000000000000000 Ar
    velocity 0.5897096873075373 -0.9807827457229664 1.1324432944283076
atom 47.3399999999999963 63.1199999999999974 0.0000000000000000 Ar
    velocity -0.2494504181244098 0.3485651914200223 -0.3903910861889041
atom 52.5999999999999943 63.1199999999999974 0.0000000000000000 Ar
    velocity -0.4403051221904778 2.4268789680987455 -0.0193169979337864
atom 57.8599999999999923 63.1199999999999974 0.0000000000000000 Ar
    velocity -0.1383626560654309 -0.8077432585488638 -1.4681419104217925
atom 63.1199999999999974 63.1199999999999974 0.0000000000000000 Ar
    velocity -1.0294731704007094 0.8689926050871152 0.1701390199726972
atom 68.3799999999999955 63.1199999999999974 0.0000000000000000 Ar
    velocity -0.2439740158531329 1.0709938628585691 2.0012797610225448
atom 73.6399999999999864 63.1199999999999974 0.0000000000000000 Ar
    velocity 0.7822085139535433 -1.7661650382133727 -0.2001657722105628
atom 0.0000000000000000 68.3799999999999955 0.0000000000000000 Ar
    velocity -0.1152560201239285 0.9141062267683374 0.1439804919939770
atom 5.2599999999999998 68.3799999999999955 0.0000000000000000 Ar
    velocity 0.0360753635372830 -0.0088835192831591 0.7397354912205137
atom 10.5199999999999996 68.3799999999999955 0.0000000000000000 Ar
    velocity 0.2977484218108096 0.1194043843293840 -0.2735572979475611
atom 15.7799999999999994 68.3799999999999955 0.0000000000000000 Ar
    velocity 0.4195713228029731 -1.2531229118284617 0.2410267915365113
atom 21.0399999999999991 68.3799999999999955 0.0000000000000000 Ar
    velocity 1.0545687687627627 0.6597199740383834 0.0043498366198869
atom 26.2999999999999972 68.3799999999999955 0.0000000000000000 Ar
    velocity 1.0454509527730644 1.4201840928279974 -0.2772580280911366
atom 31.5599999999999987 68.3799999999999955 0.0000000000000000 Ar
    velocity -0.7767942622785224 0.5841791041832567 0.1051739948108671
atom 36.8199999999999932 68.3799999999999955 0.0000000000000000 Ar
    velocity 0.7371002430209276 0.2772181533349199 -0.3188570604188688
atom 42.0799999999999983 68.3799999999999955 0.0000000000000000 Ar
    velocity 0.7779274743368242 1.4941186526168884 -0.4821648390359393
atom 47.3399999999999963 68.3799999999999955 0.0000000000000000 Ar
    velocity 0.3527039410409185 -0.3236415175783705 1.2561455664398260
atom 52.5999999999999943 68.3799999999999955 0.0000000000000000 Ar
    velocity 0.7564738608839511 0.6285003436743266 0.1780529034749525
atom 57.8599999999999923 68.3799999999999955 0.0000000000000000 Ar
    velocity -1.2156537789786279 1.2234834127424323 1.5513561694887634
atom 63.1199999999999974 68.3799999999999955 0.0000000000000000 Ar
    velocity -0.5331242872959946 0.8471002977286168 0.4054917079470627
atom 68.3799999999999955 68.3799999999999955 0.0000000000000000 Ar
    velocity 1.1092520925940279 -1.0151853440370844 -1.1944420527172159
atom 73.6399999999999864 68.3799999999999955 0.0000000000000000 Ar
    velocity 0.1750584632777706 -1.2296606032450230 -0.8468112326738427
atom 0.0000000000000000 73.6399999999999864 0.0000000000000000 Ar
    velocity -1.9377945714598097 0.4213249018926112 -0.3192513688852022
atom 5.2599999999999998 73.6399999999999864 0.0000000000000000 Ar
    velocity 0.4727475279139929 0.0562151791347460 0.4763465390568457
atom 10.5199999999999996 73.6399999999999864 0.0000000000000000 Ar
    velocity -0.4757269353222472 1.5337824828022821 -1.6536357114428542
atom 15.7799999999999994 73.6399999999999864 0.0000000000000000 Ar