#=======================================================
# FHI-aims file: argon_3600_30k.in
# Created using the Atomic Simulation Environment (ASE)
# Tue Jun 15 19:24:51 2021
#=======================================================
lattice_vector 47.3399999999999963 0.0000000000000000 0.0000000000000000 
lattice_vector 0.0000000000000000 52.5999999999999943 0.0000000000000000 
lattice_vector 0.0000000000000000 0.0000000000000000 52.5999999999999943 
atom 0.0000000000000000 0.0000000000000000 0.0000000000000000 Ar
    velocity -0.2939705165132921 -1.1950430909173486 0.2127683969104020
atom 5.2599999999999989 0.0000000000000000 0.0000000000000000 Ar
    velocity -1.7642793034256596 0.7090873124595485 -0.6020934714377543
atom 10.5199999999999978 0.0000000000000000 0.0000000000000000 Ar
    velocity 0.8711053806621708 0.5924277733852168 0.1354954401585207
atom 15.7799999999999976 0.0000000000000000 0.0000000000000000 Ar
    velocity -0.8969566067466439 0.1299766558520521 0.9419490266849736
atom 21.0399999999999956 0.0000000000000000 0.0000000000000000 Ar
    velocity -0.5120672952247965 0.5214992295142669 0.3882585048610202
atom 26.3000000000000007 0.0000000000000000 0.0000000000000000 Ar
    velocity -0.4607417591777530 0.0044083295684028 0.3244117617079160
atom 31.5599999999999952 0.0000000000000000 0.0000000000000000 Ar
    velocity 1.3399733963338389 -0.0376912738726597 -1.2020022502907748
atom 36.8199999999999932 0.0000000000000000 0.0000000000000000 Ar
    velocity 1.1451986921023705 -0.7377576224060581 0.5827065077487689
atom 42.0799999999999912 0.0000000000000000 0.0000000000000000 Ar
    velocity 0.0223065619231393 -0.1486130161046460 -0.2583747702859389
atom 0.0000000000000000 5.2599999999999998 0.0000000000000000 Ar
    velocity 0.1899281568819304 -0.7032062663690740 -0.7575392873223029
atom 5.2599999999999989 5.2599999999999998 0.0000000000000000 Ar
    velocity -1.1983780811351576 1.2830260733672540 -0.4996336692118443
atom 10.5199999999999978 5.2599999999999998 0.0000000000000000 Ar
    velocity 0.6675663376010089 -0.2371843834449281 -0.4909296280186483
atom 15.7799999999999976 5.2599999999999998 0.0000000000000000 Ar
    velocity 0.1356452982646825 0.4291583489179671 0.0515566813527681
atom 21.0399999999999956 5.2599999999999998 0.0000000000000000 Ar
    velocity -0.0523181900504990 -0.9911200657437411 0.8448009028686023
atom 26.3000000000000007 5.2599999999999998 0.0000000000000000 Ar
    velocity 0.4824105454633174 -0.6900996517083924 0.0679630148721776
atom 31.5599999999999952 5.2599999999999998 0.0000000000000000 Ar
    velocity 0.0665836457771724 -0.2608704092175250 0.8096131464213725
atom 36.8199999999999932 5.2599999999999998 0.0000000000000000 Ar
    velocity -0.3891891676438439 1.0288812011043782 -1.0823296274435192
atom 42.0799999999999912 5.2599999999999998 0.0000000000000000 Ar
    velocity 0.5501493974454397 0.9760626769048905 1.7976933898991783
atom 0.0000000000000000 10.5199999999999996 0.0000000000000000 Ar
    velocity 1.1288980021669259 -1.4859320620789735 -0.8209570266257195
atom 5.2599999999999989 10.5199999999999996 0.0000000000000000 Ar
    velocity -0.3288561648960109 0.9660676948504410 0.1892761727283401
atom 10.5199999999999978 10.5199999999999996 0.0000000000000000 Ar
    velocity 0.8010099586212175 0.0527524502740463 0.8737182878698748
atom 15.7799999999999976 10.5199999999999996 0.0000000000000000 Ar
    velocity 0.4197083241336840 -1.6464757501927367 -0.6745122201135197
atom 21.0399999999999956 10.5199999999999996 0.0000000000000000 Ar
    velocity 0.5591716904994242 1.1656571871508603 0.3527264198778118
atom 26.3000000000000007 10.5199999999999996 0.0000000000000000 Ar
    velocity -2.0989336432625336 -0.5270541858064128 -1.1957609509821205
atom 31.5599999999999952 10.5199999999999996 0.0000000000000000 Ar
    velocity -0.0094676885783999 1.0609153686463679 -0.7336801932580389
atom 36.8199999999999932 10.5199999999999996 0.0000000000000000 Ar
    velocity 0.6567497624716532 0.9695555340877534 0.1781461345514093
atom 42.0799999999999912 10.5199999999999996 0.0000000000000000 Ar
    velocity 0.4571033433660476 -0.1350103665991448 1.0764317145950801
atom 0.0000000000000000 15.7800000000000011 0.0000000000000000 Ar
    velocity 0.5867553587993123 -0.8609062833029537 -0.6490811392577307
atom 5.2599999999999989 15.7800000000000011 0.0000000000000000 Ar
    velocity -0.2050022814308110 -0.4954209141071484 0.0985778542308170
atom 10.5199999999999978 15.7800000000000011 0.0000000000000000 Ar
    velocity 0.1779159790701735 -0.6144700278758080 -0.1666597754690567
atom 15.7799999999999976 15.7800000000000011 0.0000000000000000 Ar
    velocity -1.0458821440022892 0.1097440947491791 -0.2045757591514641
atom 21.0399999999999956 15.7800000000000011 0.0000000000000000 Ar
    velocity -0.2307144576871785 -0.8989356025928998 1.1041085365228449
atom 26.3000000000000007 15.7800000000000011 0.0000000000000000 Ar
    velocity 0.5740366726384281 1.8686040548566092 0.6648841870871400
atom 31.5599999999999952 15.7800000000000011 0.0000000000000000 Ar
    velocity 0.1399933020878177 0.6092991208586226 -0.2954814643965863
atom 36.8199999999999932 15.7800000000000011 0.0000000000000000 Ar
    velocity 0.6193186755983884 0.1586895623529087 0.4722038599748964
atom 42.0799999999999912 15.7800000000000011 0.0000000000000000 Ar
    velocity -0.5391703908726593 -0.2255876253182056 -1.5244536085405691
atom 0.0000000000000000 21.0399999999999991 0.0000000000000000 Ar
    velocity 1.3588808229269151 -0.2652732581115153 0.2453427088769559
atom 5.2599999999999989 21.0399999999999991 0.0000000000000000 Ar
    velocity 0.0529906533776432 -1.1681795764925207 0.2857194084990333
atom 10.5199999999999978 21.0399999999999991 0.0000000000000000 Ar
    velocity -0.9599606152696863 -0.1371408776898142 -1.5307134317358477
atom 15.7799999999999976 21.0399999999999991 0.0000000000000000 Ar
    velocity 0.4941030687441327 -0.0441070473990978 -0.9767024888320934
atom 21.0399999999999956 21.0399999999999991 0.0000000000000000 Ar
    velocity 0.4684672575667079 0.5216356834664768 0.2896850666054827
atom 26.3000000000000007 21.0399999999999991 0.0000000000000000 Ar
    velocity -0.3456036919085813 -1.2893979382782454 -0.1608928528226673
atom 31.5599999999999952 21.0399999999999991 0.0000000000000000 Ar
    velocity 0.8181625710729188 0.0109694770649482 0.2711743955737740
atom 36.8199999999999932 21.0399999999999991 0.0000000000000000 Ar
    velocity -0.6896678856060988 0.8185796143012621 0.2548445698081887
atom 42.0799999999999912 21.0399999999999991 0.0000000000000000 Ar
    velocity 0.1700808301772652 -0.3556989029552303 0.0218112639956020
atom 0.0000000000000000 26.2999999999999972 0.0000000000000000 Ar
    velocity 0.9554394466138296 -0.3283438195024112 0.4989545785664333
atom 5.2599999999999989 26.2999999999999972 0.0000000000000000 Ar
    velocity -0.3435592741812391 1.2393530059687849 -0.1640227221634363
atom 10.5199999999999978 26.2999999999999972 0.0000000000000000 Ar
    velocity 0.1275931529618561 0.0451664653156049 -0.1077479273172734
atom 15.7799999999999976 26.2999999999999972 0.0000000000000000 Ar
    velocity -0.4264465396591913 -0.6004359897705965 1.4041050263920010
atom 21.0399999999999956 26.2999999999999972 0.0000000000000000 Ar
    velocity 0.4495762651119732 0.7271761782338881 -0.1598211384871366
atom 26.3000000000000007 26.2999999999999972 0.0000000000000000 Ar
    velocity 0.5856534512239466 -0.4435631914321053 -0.8367729935836788
atom 31.5599999999999952 26.2999999999999972 0.0000000000000000 Ar
    velocity 0.0171243834936901 0.5585265727659382 -0.6618601390769523
atom 36.8199999999999932 26.2999999999999972 0.0000000000000000 Ar
    velocity -0.7909195606620676 0.7020144342269361 -1.5072270082654295
atom 42.0799999999999912 26.2999999999999972 0.0000000000000000 Ar
    velocity 0.9558171345816158 0.5300325194659405 0.1787498367568312
atom 0.0000000000000000 31.5600000000000023 0.0000000000000000 Ar
    velocity 0.9081574098169956 0.7975038143859909 -0.0908362201558350
atom 5.2599999999999989 31.5600000000000023 0.0000000000000000 Ar
    velocity 1.2008471691040394 1.4239761946522833 -0.8788700541625298
atom 10.5199999999999978 31.5600000000000023 0.0000000000000000 Ar
    velocity -0.9011953473273593 -0.9999288812835987 0.2135779365961980
atom 15.7799999999999976 31.5600000000000023 0.0000000000000000 Ar
    velocity 0.0478189926688341 -0.8408090522317652 -0.4295796252477535
atom 21.0399999999999956 31.5600000000000023 0.0000000000000000 Ar
    velocity -0.4477301883146814 -0.0230923785670843 -0.8043244173405254
atom 26.3000000000000007 31.5600000000000023 0.0000000000000000 Ar
    velocity -1.4762398801181826 -0.8465536990594053 -0.9830469215718476
atom 31.5599999999999952 31.5600000000000023 0.0000000000000000 Ar
    velocity -1.3671662579846660 0.7831560885856874 0.0856942764262656
atom 36.8199999999999932 31.5600000000000023 0.0000000000000000 Ar
    velocity 0.3147112084399398 -0.0361782847189690 0.6274365270872021
atom 42.0799999999999912 31.5600000000000023 0.0000000000000000 Ar
    velocity 0.7959556310011840 0.7990476766648154 -0.3665818795637457
atom 0.0000000000000000 36.8200000000000003 0.0000000000000000 Ar
    velocity 0.7458369371572829 -1.1186853528371417 0.1146177208101376
atom 5.2599999999999989 36.8200000000000003 0.0000000000000000 Ar
    velocity 0.4944306370804326 0.0268345704729428 -0.2774922125878315
atom 10.5199999999999978 36.8200000000000003 0.0000000000000000 Ar
    velocity -0.5996056591078427 0.9640033560006076 -0.1038082706626922
atom 15.7799999999999976 36.8200000000000003 0.0000000000000000 Ar
    velocity -0.7880699713609125 0.9564163405201578 0.8344829750456924
atom 21.0399999999999956 36.8200000000000003 0.0000000000000000 Ar
    velocity 1.1298375455726983 0.9023013457757280 -0.1370140232591840
atom 26.3000000000000007 36.8200000000000003 0.0000000000000000 Ar
    velocity -1.3023954196436101 -0.0682924936080224 0.7871465355820216
atom 31.5599999999999952 36.8200000000000003 0.0000000000000000 Ar
    velocity 0.6357715530810902 -0.7003044693894321 1.3870365547002219
atom 36.8199999999999932 36.8200000000000003 0.0000000000000000 Ar
    velocity -0.1331058096314614 -0.0102783561603165 -0.6473127746443204
atom 42.0799999999999912 36.8200000000000003 0.0000000000000000 Ar
    velocity 0.0685129694813200 -1.3766643322318621 0.8565061157021311
atom 0.0000000000000000 42.0799999999999983 0.0000000000000000 Ar
    velocity 1.1269340611956247 -0.6931909043682803 -1.2357374152668417
atom 5.2599999999999989 42.0799999999999983 0.0000000000000000 Ar
    velocity -0.2624764936377166 -0.2651723719242940 0.3767320430319549
atom 10.5199999999999978 42.0799999999999983 0.0000000000000000 Ar
    velocity 0.9129436786696352 0.5674889474786387 -1.0578776867105277
atom 15.7799999999999976 42.0799999999999983 0.0000000000000000 Ar
    velocity -0.3341807520993489 -0.1734709728562044 0.0083481818407670
atom 21.0399999999999956 42.0799999999999983 0.0000000000000000 Ar
    velocity -0.7296687766482035 1.1122446051661938 0.0875821386946942
atom 26.3000000000000007 42.0799999999999983 0.0000000000000000 Ar
    velocity 0.8995541682371461 -0.3557241428910844 0.1014410384556585
atom 31.5599999999999952 42.0799999999999983 0.0000000000000000 Ar
    velocity -0.5064395863619229 -1.0290587432881098 1.5006029969210206
atom 36.8199999999999932 42.0799999999999983 0.0000000000000000 Ar
    velocity 0.9068415660904778 0.0395533703308861 -0.8757452489788946
atom 42.0799999999999912 42.0799999999999983 0.0000000000000000 Ar
    velocity -0.9444849656602173 0.2375033847121591 0.2160361351859065
atom 0.0000000000000000 47.3399999999999963 0.0000000000000000 Ar
    velocity -0.3837683803238364 -1.1551171417522454 -0.6575154293434621
atom 5.2599999999999989 47.3399999999999963 0.0000000000000000 Ar
    velocity 0.1271480593024489 -1.6013266665262633 0.5649123285375672
atom 10.5199999999999978 47.3399999999999963 0.0000000000000000 Ar
    velocity -0.6943269578396677 0.7634092101214734 -0.4208733591549735
atom 15.7799999999999976 47.3399999999999963 0.0000000000000000 Ar
    velocity -0.0644712603606003 -0.1004124822664664 -0.3415155154168505
atom 21.0399999999999956 47.3399999999999963 0.0000000000000000 Ar
    velocity -0.4312682974201887 -0.2330568110561145 0.2408539828358747
atom 26.3000000000000007 47.3399999999999963 0.0000000000000000 Ar
    velocity -0.0337896165165803 0.6172932407325841 0.6518316911692877
atom 31.5599999999999952 47.3399999999999963 0.0000000000000000 Ar
    velocity 1.3256344317733952 0.1581962893304823 1.1631085858093466
atom 36.8199999999999932 47.3399999999999963 0.0000000000000000 Ar
    velocity 0.0713011359107269 0.0606524233491628 0.2308190225275933
atom 42.0799999999999912 47.3399999999999963 0.0000000000000000 Ar
    velocity -0.2364375887641302 -0.1553099725337269 0.5162376963440350
atom 0.0000000000000000 0.0000000000000000 5.2599999999999998 Ar
    velocity 0.1781588211739498 0.9782219919003828 -0.6982077516877863
atom 5.2599999999999989 0.0000000000000000 5.2599999999999998 Ar
    velocity 0.1265299704178532 0.0248821492860314 -0.3942502886552347
atom 10.5199999999999978 0.0000000000000000 5.2599999999999998 Ar
    velocity -1.0629525805564259 0.6780882855086895 0.4230850478883083
atom 15.7799999999999976 0.0000000000000000 5.2599999999999998 Ar
    velocity 1.4175745415262044 -0.1739061655280569 -0.7023305806339873
atom 21.0399999999999956 0.0000000000000000 5.2599999999999998 Ar
    velocity 0.2463487998652481 0.0682855219172411 -0.3541904513108008
atom 26.3000000000000007 0.0000000000000000 5.2599999999999998 Ar
    velocity 0.1560255948772746 1.0604417011090232 0.3386783275702678
atom 31.5599999999999952 0.0000000000000000 5.2599999999999998 Ar
    velocity 0.3335458417977093 1.1663102893533459 -0.2690254744831376
atom 36.8199999999999932 0.0000000000000000 5.2599999999999998 Ar
    velocity -0.1283071177236302 0.0575770620577518 0.1075592830138251
atom 42.0799999999999912 0.0000000000000000 5.2599999999999998 Ar
    velocity -0.0674459028930052 0.2244347262672145 0.9173178299563529
atom 0.0000000000000000 5.2599999999999998 5.2599999999999998 Ar
    velocity 0.7450442393985026 0.3626541446071763 -1.6702533001074127
atom 5.2599999999999989 5.2599999999999998 5.2599999999999998 Ar
    velocity -0.2324403726147608 0.2480133662707024 -0.3651122359587387
atom 10.5199999999999978 5.2599999999999998 5.2599999999999998 Ar
    velocity 0.3226095657123151 -0.3727539576839109 -1.2678693264279257
atom 15.7799999999999976 5.2599999999999998 5.2599999999999998 Ar
    velocity -0.7077839929702907 0.4249060637733461 1.2468969324634194
atom 21.0399999999999956 5.2599999999999998 5.2599999999999998 Ar
    velocity 1.1962179898448444 0.2545018809329937 0.0187648423261569
atom 26.3000000000000007 5.2599999999999998 5.2599999999999998 Ar
    velocity 0.6398110471086025 0.9689874517895476 0.0627997576420013
atom 31.5599999999999952 5.2599999999999998 5.2599999999999998 Ar
    velocity -0.5347343780701563 -0.2414714832509802 0.8165879603652608
atom 36.8199999999999932 5.2599999999999998 5.2599999999999998 Ar
    velocity -0.3902762073734099 0.2423083445225637 0.0634481950202849
atom 42.0799999999999912 5.2599999999999998 5.2599999999999998 Ar
    velocity -0.8866155831767979 -0.1217939521021072 -0.2550195211824613
atom 0.0000000000000000 10.5199999999999996 5.2599999999999998 Ar
    velocity 0.0108655817041744 0.5888757144848044 -0.1058025844395113
atom 5.2599999999999989 10.5199999999999996 5.2599999999999998 Ar
    velocity 2.1346157299182451 -0.8516653160107157 1.1829235207469098
atom 10.5199999999999978 10.5199999999999996 5.2599999999999998 Ar
    velocity 0.3058378704579457 1.3145806197822014 -0.0159568473512304
atom 15.7799999999999976 10.5199999999999996 5.2599999999999998 Ar
    velocity -0.3405607785300325 -0.0343509576637598 -0.8497561191731952
atom 21.0399999999999956 10.5199999999999996 5.2599999999999998 Ar
    velocity 0.3815243030531750 -0.8162259391116933 -0.0520271001843129
atom 26.3000000000000007 10.5199999999999996 5.2599999999999998 Ar
    velocity 0.0218685949266901 -0.9055424317715899 -0.2363921697007023
atom 31.5599999999999952 10.5199999999999996 5.2599999999999998 Ar
    velocity 0.5082340501549176 -0.4515265773817283 0.9964031190759949
atom 36.8199999999999932 10.5199999999999996 5.2599999999999998 Ar
    velocity -0.4002932822139426 0.8241482308633177 0.2716926312572671
atom 42.0799999999999912 10.5199999999999996 5.2599999999999998 Ar
    velocity -1.0847654316671045 -0.1316578072637189 0.9349379325454124
atom 0.0000000000000000 15.7800000000000011 5.2599999999999998 Ar
    velocity 1.5921426245927157 -0.7282405415994153 -1.4277638051022192
atom 5.2599999999999989 15.7800000000000011 5.2599999999999998 Ar
    velocity -0.1971769456968967 -0.5244094779243261 -0.3667266932860745
atom 10.5199999999999978 15.7800000000000011 5.2599999999999998 Ar
    velocity -1.0596425343635656 -0.9765617262034147 -1.9745560499446480
atom 15.7799999999999976 15.7800000000000011 5.2599999999999998 Ar
    velocity 0.4939157746919134 0.9687049494760265 0.4270041625908321
atom 21.0399999999999956 15.7800000000000011 5.2599999999999998 Ar
    velocity -0.1680507686235219 -1.6456148953741963 0.2322310144168528
atom 26.3000000000000007 15.7800000000000011 5.2599999999999998 Ar
    velocity 0.5204137991551818 -0.1819779568737343 0.2182978113242338
atom 31.5599999999999952 15.7800000000000011 5.2599999999999998 Ar
    velocity 0.7902924159518318 -0.0599320267095320 0.3870503017739071
atom 36.8199999999999932 15.7800000000000011 5.2599999999999998 Ar
    velocity -0.7288590293498527 -1.4963461018880579 0.3308707805960052
atom 42.0799999999999912 15.7800000000000011 5.2599999999999998 Ar
    velocity -0.1605806116260134 0.0316418932709815 0.5558201778563666
atom 0.0000000000000000 21.0399999999999991 5.2599999999999998 Ar
    velocity -0.3194274857941204 -0.4042538679198867 -0.2361914100105630
atom 5.2599999999999989 21.0399999999999991 5.2599999999999998 Ar
    velocity 0.0288545523867227 -0.3038778183008623 1.4631878216178429
atom 10.5199999999999978 21.0399999999999991 5.2599999999999998 Ar
    velocity -0.0708501808279281 -0.1869555393550354 1.0254998069927352
atom 15.7799999999999976 21.0399999999999991 5.2599999999999998 Ar
    velocity -1.2092023036137711 -0.1940743619513343 -0.6951547723731869
atom 21.0399999999999956 21.0399999999999991 5.2599999999999998 Ar
    velocity 0.2983022411012171 -0.2045252534806325 0.4584860715431248
atom 26.3000000000000007 21.0399999999999991 5.2599999999999998 Ar
    velocity -1.5373189460540562 -0.6029775142832249 -1.6184865533668704
atom 31.5599999999999952 21.0399999999999991 5.2599999999999998 Ar
    velocity 0.5311022581724703 0.1601381522523987 -0.2779464044578822
atom 36.8199999999999932 21.0399999999999991 5.2599999999999998 Ar
    velocity -0.5647445298970105 -0.4768778481826894 -0.9319940969662754
atom 42.0799999999999912 21.0399999999999991 5.2599999999999998 Ar
    velocity -0.6261517179863231 -0.2022438361790790 -0.6517406535078730
atom 0.0000000000000000 26.2999999999999972 5.2599999999999998 Ar
    velocity -0.0973645418821780 -0.5573105241107250 1.7766985983889407
atom 5.2599999999999989 26.2999999999999972 5.2599999999999998 Ar
    velocity -0.1607378581858015 1.7642723396163562 -0.5306903170773074
atom 10.5199999999999978 26.2999999999999972 5.2599999999999998 Ar
    velocity 0.7889776998180077 1.1683165689287354 2.4699349645252719
atom 15.7799999999999976 26.2999999999999972 5.2599999999999998 Ar
    velocity -1.1828497714031663 -0.6771799261721759 1.0146335310372523
atom 21.0399999999999956 26.2999999999999972 5.2599999999999998 Ar
    velocity 1.0595355578401604 -1.6130629326089765 -0.8327613273833837
atom 26.3000000000000007 26.2999999999999972 5.2599999999999998 Ar
    velocity 0.2959855712974213 -0.7506064694811996 -0.4554693594403598
atom 31.5599999999999952 26.2999999999999972 5.2599999999999998 Ar
    velocity -0.2980557290754696 0.3760734119093476 0.1096940492357363
atom 36.8199999999999932 26.2999999999999972 5.2599999999999998 Ar
    velocity 0.5024521797355712 -0.5741608518437628 -0.1221843930849956
atom 42.0799999999999912 26.2999999999999972 5.2599999999999998 Ar
    velocity -0.4948281329501710 0.4763347760768241 0.0792334401547475
atom 0.0000000000000000 31.5600000000000023 5.2599999999999998 Ar
    velocity -0.2842987055675039 0.4323692394145024 0.7457050939461219
atom 5.2599999999999989 31.5600000000000023 5.2599999999999998 Ar
    velocity 0.0168212885728638 0.3444504451989895 0.3363196456353775
atom 10.5199999999999978 31.5600000000000023 5.2599999999999998 Ar
    velocity 0.0085297548779957 -0.3256645802651606 -0.2111268316700231
atom 15.7799999999999976 31.5600000000000023 5.2599999999999998 Ar
    velocity -0.3679269418894981 0.1165455968571629 -0.0509947021514156
atom 21.0399999999999956 31.5600000000000023 5.2599999999999998 Ar
    velocity 0.6426985970165996 0.6357474973017756 -0.4359193619720252
atom 26.3000000000000007 31.5600000000000023 5.2599999999999998 Ar
    velocity 1.4262319008398752 -0.7546835807295009 -0.8403189524250944
atom 31.5599999999999952 31.5600000000000023 5.2599999999999998 Ar
    velocity -0.7355394706791908 0.7829962586043296 -0.4998693427700407
atom 36.8199999999999932 31.5600000000000023 5.2599999999999998 Ar
    velocity -0.3635432304280652 0.1748601406028086 -1.7410865573800134
atom 42.0799999999999912 31.5600000000000023 5.2599999999999998 Ar
    velocity -0.4928583165799788 1.1358974397174049 -0.7579687190350806
atom 0.0000000000000000 36.8200000000000003 5.2599999999999998 Ar
    velocity -0.3613685564785306 0.8076742191382391 0.5740499456594433
atom 5.2599999999999989 36.8200000000000003 5.2599999999999998 Ar
    velocity -0.0269894727375689 -1.3078612035438397 0.9256219089632615
atom 10.5199999999999978 36.8200000000000003 5.2599999999999998 Ar
    velocity -0.0068214334600333 1.2773840187996550 -0.4065279928223163
atom 15.7799999999999976 36.8200000000000003 5.2599999999999998 Ar
    velocity -0.7727204707572649 -0.5020361045820678 0.8019290160268919
atom 21.0399999999999956 36.8200000000000003 5.2599999999999998 Ar
    velocity -1.1600855417876370 1.4314772480912619 -2.1711191817763620
atom 26.3000000000000007 36.8200000000000003 5.2599999999999998 Ar
    velocity -0.5093353867443451 0.8159643960033977 0.4052830909398029
atom 31.5599999999999952 36.8200000000000003 5.2599999999999998 Ar
    velocity 0.5239262748159690 -0.7305374687753444 0.0736039643538436
atom 36.8199999999999932 36.8200000000000003 5.2599999999999998 Ar
    velocity 0.1687033830390841 -1.1666512650091418 -0.1983512631465543
atom 42.0799999999999912 36.8200000000000003 5.2599999999999998 Ar
    velocity 0.1795651640415285 0.4077366029083673 -0.8614112913298835
atom 0.0000000000000000 42.0799999999999983 5.2599999999999998 Ar
    velocity -1.0541832681335355 0.1467694347616508 -0.4440863187704459
atom 5.2599999999999989 42.0799999999999983 5.2599999999999998 Ar
    velocity 0.6525339408457917 -1.7700288405800324 -1.4435788066896205
atom 10.5199999999999978 42.0799999999999983 5.2599999999999998 Ar
    velocity 1.2772011193081649 -0.6905400625900193 -0.9402988771681148
atom 15.7799999999999976 42.0799999999999983 5.2599999999999998 Ar
    velocity -0.7817631603952335 -1.7212614468307319 -0.6525275856584186
atom 21.0399999999999956 42.0799999999999983 5.2599999999999998 Ar
    velocity -0.0850210582830667 0.0481466690068090 -0.1323948086325698
atom 26.3000000000000007 42.0799999999999983 5.2599999999999998 Ar
    velocity -0.5965754274222169 0.4730736075315121 -0.6142072794554521
atom 31.5599999999999952 42.0799999999999983 5.2599999999999998 Ar
    velocity -0.4930596385559440 0.3589960580991930 -0.3157216123344557
atom 36.8199999999999932 42.0799999999999983 5.2599999999999998 Ar
    velocity -0.1929344183687530 -0.6722803857756686 0.4540388983279886
atom 42.0799999999999912 42.0799999999999983 5.2599999999999998 Ar
    velocity 1.2669625493678378 -1.1146683099047585 -0.5443969674741492
atom 0.0000000000000000 47.3399999999999963 5.2599999999999998 Ar
    velocity -0.2775516347587781 0.5623952333086476 -0.8645030568457388
atom 5.2599999999999989 47.3399999999999963 5.2599999999999998 Ar
    velocity -0.2632979975313839 -0.3424908887756500 0.2536818032442796
atom 10.5199999999999978 47.3399999999999963 5.2599999999999998 Ar
    velocity 0.5529350631454831 -0.2770311961404787 0.5960035363268893
atom 15.7799999999999976 47.3399999999999963 5.2599999999999998 Ar
    velocity 0.7572931379345061 -1.2776371376243572 0.0316335246916667
atom 21.0399999999999956 47.3399999999999963 5.2599999999999998 Ar
    velocity 1.6398782340447133 0.6408874998546309 -0.0463837248708710
atom 26.3000000000000007 47.3399999999999963 5.2599999999999998 Ar
    velocity 0.3607829583220605 1.3627790159080253 0.7713214143505781
atom 31.5599999999999952 47.3399999999999963 5.2599999999999998 Ar
    velocity -0.3051784613221659 1.8270565117438700 0.2179960632206270
atom 36.8199999999999932 47.3399999999999963 5.2599999999999998 Ar
    velocity 0.4038692895655032 1.3023563828073474 -0.0408351228277817
atom 42.0799999999999912 47.3399999999999963 5.2599999999999998 Ar
    velocity 0.0951874297094674 0.1398700347642400 0.2705993485801943
atom 0.0000000000000000 0.0000000000000000 10.5199999999999996 Ar
    velocity 1.1478773368387649 0.9513213027731371 0.5829851550073779
atom 5.2599999999999989 0.0000000000000000 10.5199999999999996 Ar
    velocity -0.1050105691842349 0.4342945296710938 -0.4351436266359036
atom 10.5199999999999978 0.0000000000000000 10.5199999999999996 Ar
    velocity 0.4304477235412278 1.2290116381075631 0.4799334097230762
atom 15.7799999999999976 0.0000000000000000 10.5199999999999996 Ar
    velocity 0.6002050988992189 1.0106777893034868 -0.3163194103127854
atom 21.0399999999999956 0.0000000000000000 10.5199999999999996 Ar
    velocity 0.5839728888770831 1.3404713426010517 0.2227300816569659
atom 26.3000000000000007 0.0000000000000000 10.5199999999999996 Ar
    velocity 0.4510916210748965 0.4157250893735596 1.0048486396604046
atom 31.5599999999999952 0.0000000000000000 10.5199999999999996 Ar
    velocity 0.8561367291347058 0.5922086933608833 0.4011879074558896
atom 36.8199999999999932 0.0000000000000000 10.5199999999999996 Ar
    velocity 0.6391836765024739 -0.2033757348874750 -1.6609201528042370
atom 42.0799999999999912 0.0000000000000000 10.5199999999999996 Ar
    velocity 0.1728164415977900 -0.4406243734546668 -0.4138033686051971
atom 0.0000000000000000 5.2599999999999998 10.5199999999999996 Ar
    velocity -0.4021735364426826 -0.6543392897881799 -0.8136284726477900
atom 5.2599999999999989 5.2599999999999998 10.5199999999999996 Ar
    velocity -0.4903811884792853 -0.2050090468934736 -0.5442440128623051
atom 10.5199999999999978 5.2599999999999998 10.5199999999999996 Ar
    velocity -1.2649839264424136 0.2434039939083929 0.0333490627369310
atom 15.7799999999999976 5.2599999999999998 10.5199999999999996 Ar
    velocity -0.5470408101166424 0.7926567023060022 0.4443765489958934
atom 21.0399999999999956 5.2599999999999998 10.5199999999999996 Ar
    velocity 0.2805993141197457 0.7140589227325770 -1.1814739424636074
atom 26.3000000000000007 5.2599999999999998 10.5199999999999996 Ar
    velocity -0.1239057887810489 -0.0987831634381821 -1.1409794355197764
atom 31.5599999999999952 5.2599999999999998 10.5199999999999996 Ar
    velocity -0.3662277421265080 0.1005020183127414 0.7530006695665764
atom 36.8199999999999932 5.2599999999999998 10.5199999999999996 Ar
    velocity -1.5366604794397229 0.3476863222453452 0.4231075806235154
atom 42.0799999999999912 5.2599999999999998 10.5199999999999996 Ar
    velocity 0.4529097009865160 -0.2673591634167900 -0.3013131575000384
atom 0.0000000000000000 10.5199999999999996 10.5199999999999996 Ar
    velocity 0.5820191498527816 0.6915532582159204 -0.7592467422365554
atom 5.2599999999999989 10.5199999999999996 10.5199999999999996 Ar
    velocity -0.2912109819660622 1.4646571191631095 0.6875818449439074
atom 10.5199999999999978 10.5199999999999996 10.5199999999999996 Ar
    velocity 0.8466204145051801 0.3373491734469039 0.2401098325979064
atom 15.7799999999999976 10.5199999999999996 10.5199999999999996 Ar
    velocity -1.2027496167401619 0.2252249585055127 0.7454214210105187
atom 21.0399999999999956 10.5199999999999996 10.5199999999999996 Ar
    velocity -0.1095312610780118 1.2057616700831588 -0.1076830171727620
atom 26.3000000000000007 10.5199999999999996 10.5199999999999996 Ar
    velocity -0.4772924803976296 0.2256824189381528 -0.9299665561724388
atom 31.5599999999999952 10.5199999999999996 10.5199999999999996 Ar
    velocity 0.6282677627334615 -1.0929223390160991 -0.0254035910471696
atom 36.8199999999999932 10.5199999999999996 10.5199999999999996 Ar
    velocity 0.0886924091093347 0.7114386682145528 0.1817972971010781
atom 42.0799999999999912 10.5199999999999996 10.5199999999999996 Ar
    velocity 1.1552894673116951 1.1232818488770966 0.6541300968355780
atom 0.0000000000000000 15.7800000000000011 10.5199999999999996 Ar
    velocity -0.8317108852829500 -0.0132763408520228 0.5768334975260229
atom 5.2599999999999989 15.7800000000000011 10.5199999999999996 Ar
    velocity -0.0342885829440910 0.5407619819796204 0.3829877730723540
atom 10.5199999999999978 15.7800000000000011 10.5199999999999996 Ar
    velocity -0.0281854217843136 -3.4496031105785772 1.0779265429892149
atom 15.7799999999999976 15.7800000000000011 10.5199999999999996 Ar
    velocity -1.0418891815663678 -0.7583380861737801 -0.3374909317399442
atom 21.0399999999999956 15.7800000000000011 10.5199999999999996 Ar
    velocity -1.1518150053221365 -0.1878938951607723 -0.5185156385812931
atom 26.3000000000000007 15.7800000000000011 10.5199999999999996 Ar
    velocity 0.0430606507534106 -1.8631783075172481 0.1606255683618589
atom 31.5599999999999952 15.7800000000000011 10.5199999999999996 Ar